*SPEF "ieee 1481-1999"
*DESIGN "computer"
*DATE "11:11:11 Fri 11 11, 1111"
*VENDOR "OpenRCX"
*PROGRAM "Parallel Extraction"
*VERSION "1.0"
*DESIGN_FLOW "NAME_SCOPE LOCAL" "PIN_CAP NONE"
*DIVIDER /
*DELIMITER :
*BUS_DELIMITER []
*T_UNIT 1 NS
*C_UNIT 1 PF
*R_UNIT 1 OHM
*L_UNIT 1 HENRY

*NAME_MAP
*1 A_out[0]
*2 A_out[1]
*3 A_out[2]
*4 A_out[3]
*5 A_out[4]
*6 A_out[5]
*7 A_out[6]
*8 A_out[7]
*9 B_out[0]
*10 B_out[1]
*11 B_out[2]
*12 B_out[3]
*13 B_out[4]
*14 B_out[5]
*15 B_out[6]
*16 B_out[7]
*19 clk
*20 flags_out[0]
*21 flags_out[1]
*22 flags_out[2]
*23 flags_out[3]
*24 last_opcode_out[0]
*25 last_opcode_out[1]
*26 last_opcode_out[2]
*27 last_opcode_out[3]
*28 last_opcode_out[4]
*29 net30
*30 last_opcode_out[6]
*31 rst
*32 U_PC\.next_pc\[0\]
*33 U_PC\.next_pc\[1\]
*34 U_PC\.next_pc\[2\]
*35 U_PC\.next_pc\[3\]
*36 U_PC\.pc\[0\]
*37 U_PC\.pc\[1\]
*38 U_PC\.pc\[2\]
*39 U_PC\.pc\[3\]
*40 _000_
*41 _001_
*42 _002_
*43 _003_
*44 _004_
*45 _005_
*46 _006_
*47 _007_
*48 _008_
*49 _009_
*50 _010_
*51 _011_
*52 _012_
*53 _013_
*54 _014_
*55 _015_
*56 _016_
*57 _017_
*58 _018_
*59 _019_
*60 _020_
*61 _021_
*62 _022_
*63 _023_
*64 _024_
*65 _025_
*66 _026_
*67 _027_
*68 _028_
*69 _029_
*70 _030_
*71 _031_
*72 _032_
*73 _033_
*74 _034_
*75 _035_
*76 _036_
*77 _037_
*78 _038_
*79 _039_
*80 _040_
*81 _041_
*82 _042_
*83 _043_
*84 _044_
*85 _045_
*86 _046_
*87 _047_
*88 _048_
*89 _049_
*90 _050_
*91 _051_
*92 _052_
*93 _053_
*94 _054_
*95 _055_
*96 _056_
*97 _057_
*98 _058_
*99 _059_
*100 _060_
*101 _061_
*102 _062_
*103 _063_
*104 _064_
*105 _065_
*106 _066_
*107 _067_
*108 _068_
*109 _069_
*110 _070_
*111 _071_
*112 _072_
*113 _073_
*114 _074_
*115 _075_
*116 _076_
*117 _077_
*118 _078_
*119 _079_
*120 _080_
*121 _081_
*122 _082_
*123 _083_
*124 _084_
*125 _085_
*126 _086_
*127 _087_
*128 _088_
*129 _089_
*130 _090_
*131 _091_
*132 _092_
*133 _093_
*134 _094_
*135 _095_
*136 _096_
*137 _097_
*138 _098_
*139 _099_
*140 _100_
*141 _101_
*142 _102_
*143 _103_
*144 _104_
*145 _105_
*146 _106_
*147 _107_
*148 _108_
*149 _109_
*150 _110_
*151 _111_
*152 _112_
*153 _113_
*154 _114_
*155 _115_
*156 _116_
*157 _117_
*158 _118_
*159 _119_
*160 _120_
*161 _121_
*162 _122_
*163 _123_
*164 _124_
*165 _125_
*166 _126_
*167 _127_
*168 _128_
*169 _129_
*170 _130_
*171 _131_
*172 _132_
*173 _133_
*174 _134_
*175 _135_
*176 _136_
*177 _137_
*178 _138_
*179 _139_
*180 _140_
*181 _141_
*182 _142_
*183 _143_
*184 _144_
*185 _145_
*186 _146_
*187 _147_
*188 _148_
*189 _149_
*190 _150_
*191 _151_
*192 _152_
*193 _153_
*194 _154_
*195 _155_
*196 _156_
*197 _157_
*198 _158_
*199 _159_
*200 _160_
*201 _161_
*202 _162_
*203 _163_
*204 _164_
*205 _165_
*206 _166_
*207 _167_
*208 _168_
*209 _169_
*210 _170_
*211 _171_
*212 _172_
*213 _173_
*214 _174_
*215 _175_
*216 _176_
*217 _177_
*218 _178_
*219 _179_
*220 _180_
*221 _181_
*222 _182_
*223 _183_
*224 _184_
*225 _185_
*226 _186_
*227 _187_
*228 _188_
*229 _189_
*230 _190_
*231 _191_
*232 _192_
*233 _193_
*234 _194_
*235 _195_
*236 _196_
*237 clknet_0_clk
*238 clknet_1_0__leaf_clk
*239 clknet_1_1__leaf_clk
*240 net1
*241 net10
*242 net11
*243 net12
*244 net13
*245 net14
*246 net15
*247 net16
*248 net17
*249 net18
*250 net19
*251 net2
*252 net20
*253 net21
*254 net22
*255 net23
*256 net24
*257 net25
*258 net26
*259 net27
*260 net28
*261 net29
*262 net3
*263 net31
*264 net32
*265 net33
*266 net34
*267 net4
*268 net5
*269 net6
*270 net7
*271 net8
*272 net9
*273 FILLER_0_0_109
*274 FILLER_0_0_113
*275 FILLER_0_0_125
*276 FILLER_0_0_137
*277 FILLER_0_0_141
*278 FILLER_0_0_15
*279 FILLER_0_0_153
*280 FILLER_0_0_165
*281 FILLER_0_0_169
*282 FILLER_0_0_181
*283 FILLER_0_0_193
*284 FILLER_0_0_197
*285 FILLER_0_0_209
*286 FILLER_0_0_216
*287 FILLER_0_0_225
*288 FILLER_0_0_237
*289 FILLER_0_0_249
*290 FILLER_0_0_253
*291 FILLER_0_0_265
*292 FILLER_0_0_27
*293 FILLER_0_0_277
*294 FILLER_0_0_281
*295 FILLER_0_0_29
*296 FILLER_0_0_293
*297 FILLER_0_0_3
*298 FILLER_0_0_305
*299 FILLER_0_0_309
*300 FILLER_0_0_321
*301 FILLER_0_0_335
*302 FILLER_0_0_337
*303 FILLER_0_0_349
*304 FILLER_0_0_361
*305 FILLER_0_0_365
*306 FILLER_0_0_377
*307 FILLER_0_0_389
*308 FILLER_0_0_393
*309 FILLER_0_0_405
*310 FILLER_0_0_41
*311 FILLER_0_0_417
*312 FILLER_0_0_421
*313 FILLER_0_0_433
*314 FILLER_0_0_445
*315 FILLER_0_0_455
*316 FILLER_0_0_467
*317 FILLER_0_0_475
*318 FILLER_0_0_477
*319 FILLER_0_0_489
*320 FILLER_0_0_501
*321 FILLER_0_0_505
*322 FILLER_0_0_517
*323 FILLER_0_0_529
*324 FILLER_0_0_53
*325 FILLER_0_0_533
*326 FILLER_0_0_545
*327 FILLER_0_0_557
*328 FILLER_0_0_567
*329 FILLER_0_0_57
*330 FILLER_0_0_579
*331 FILLER_0_0_587
*332 FILLER_0_0_589
*333 FILLER_0_0_601
*334 FILLER_0_0_613
*335 FILLER_0_0_617
*336 FILLER_0_0_629
*337 FILLER_0_0_641
*338 FILLER_0_0_645
*339 FILLER_0_0_657
*340 FILLER_0_0_669
*341 FILLER_0_0_673
*342 FILLER_0_0_685
*343 FILLER_0_0_69
*344 FILLER_0_0_697
*345 FILLER_0_0_701
*346 FILLER_0_0_713
*347 FILLER_0_0_725
*348 FILLER_0_0_729
*349 FILLER_0_0_741
*350 FILLER_0_0_753
*351 FILLER_0_0_757
*352 FILLER_0_0_769
*353 FILLER_0_0_781
*354 FILLER_0_0_785
*355 FILLER_0_0_797
*356 FILLER_0_0_804
*357 FILLER_0_0_81
*358 FILLER_0_0_813
*359 FILLER_0_0_821
*360 FILLER_0_0_85
*361 FILLER_0_0_97
*362 FILLER_0_100_109
*363 FILLER_0_100_121
*364 FILLER_0_100_133
*365 FILLER_0_100_139
*366 FILLER_0_100_141
*367 FILLER_0_100_153
*368 FILLER_0_100_165
*369 FILLER_0_100_177
*370 FILLER_0_100_189
*371 FILLER_0_100_195
*372 FILLER_0_100_197
*373 FILLER_0_100_209
*374 FILLER_0_100_21
*375 FILLER_0_100_221
*376 FILLER_0_100_233
*377 FILLER_0_100_245
*378 FILLER_0_100_251
*379 FILLER_0_100_253
*380 FILLER_0_100_265
*381 FILLER_0_100_27
*382 FILLER_0_100_277
*383 FILLER_0_100_289
*384 FILLER_0_100_29
*385 FILLER_0_100_301
*386 FILLER_0_100_307
*387 FILLER_0_100_309
*388 FILLER_0_100_321
*389 FILLER_0_100_333
*390 FILLER_0_100_345
*391 FILLER_0_100_357
*392 FILLER_0_100_363
*393 FILLER_0_100_365
*394 FILLER_0_100_377
*395 FILLER_0_100_389
*396 FILLER_0_100_401
*397 FILLER_0_100_41
*398 FILLER_0_100_413
*399 FILLER_0_100_419
*400 FILLER_0_100_421
*401 FILLER_0_100_433
*402 FILLER_0_100_445
*403 FILLER_0_100_457
*404 FILLER_0_100_469
*405 FILLER_0_100_475
*406 FILLER_0_100_477
*407 FILLER_0_100_489
*408 FILLER_0_100_501
*409 FILLER_0_100_513
*410 FILLER_0_100_525
*411 FILLER_0_100_53
*412 FILLER_0_100_531
*413 FILLER_0_100_533
*414 FILLER_0_100_545
*415 FILLER_0_100_557
*416 FILLER_0_100_569
*417 FILLER_0_100_581
*418 FILLER_0_100_587
*419 FILLER_0_100_589
*420 FILLER_0_100_601
*421 FILLER_0_100_613
*422 FILLER_0_100_625
*423 FILLER_0_100_637
*424 FILLER_0_100_643
*425 FILLER_0_100_645
*426 FILLER_0_100_65
*427 FILLER_0_100_657
*428 FILLER_0_100_669
*429 FILLER_0_100_681
*430 FILLER_0_100_693
*431 FILLER_0_100_699
*432 FILLER_0_100_701
*433 FILLER_0_100_713
*434 FILLER_0_100_725
*435 FILLER_0_100_737
*436 FILLER_0_100_749
*437 FILLER_0_100_755
*438 FILLER_0_100_757
*439 FILLER_0_100_769
*440 FILLER_0_100_77
*441 FILLER_0_100_781
*442 FILLER_0_100_793
*443 FILLER_0_100_805
*444 FILLER_0_100_811
*445 FILLER_0_100_813
*446 FILLER_0_100_821
*447 FILLER_0_100_83
*448 FILLER_0_100_85
*449 FILLER_0_100_9
*450 FILLER_0_100_97
*451 FILLER_0_101_105
*452 FILLER_0_101_111
*453 FILLER_0_101_113
*454 FILLER_0_101_125
*455 FILLER_0_101_137
*456 FILLER_0_101_149
*457 FILLER_0_101_15
*458 FILLER_0_101_161
*459 FILLER_0_101_167
*460 FILLER_0_101_169
*461 FILLER_0_101_181
*462 FILLER_0_101_193
*463 FILLER_0_101_205
*464 FILLER_0_101_217
*465 FILLER_0_101_223
*466 FILLER_0_101_225
*467 FILLER_0_101_237
*468 FILLER_0_101_249
*469 FILLER_0_101_261
*470 FILLER_0_101_27
*471 FILLER_0_101_273
*472 FILLER_0_101_279
*473 FILLER_0_101_281
*474 FILLER_0_101_293
*475 FILLER_0_101_3
*476 FILLER_0_101_305
*477 FILLER_0_101_317
*478 FILLER_0_101_329
*479 FILLER_0_101_335
*480 FILLER_0_101_337
*481 FILLER_0_101_349
*482 FILLER_0_101_361
*483 FILLER_0_101_373
*484 FILLER_0_101_385
*485 FILLER_0_101_39
*486 FILLER_0_101_391
*487 FILLER_0_101_393
*488 FILLER_0_101_405
*489 FILLER_0_101_417
*490 FILLER_0_101_429
*491 FILLER_0_101_441
*492 FILLER_0_101_447
*493 FILLER_0_101_449
*494 FILLER_0_101_461
*495 FILLER_0_101_473
*496 FILLER_0_101_485
*497 FILLER_0_101_497
*498 FILLER_0_101_503
*499 FILLER_0_101_505
*500 FILLER_0_101_51
*501 FILLER_0_101_517
*502 FILLER_0_101_529
*503 FILLER_0_101_541
*504 FILLER_0_101_55
*505 FILLER_0_101_553
*506 FILLER_0_101_559
*507 FILLER_0_101_561
*508 FILLER_0_101_57
*509 FILLER_0_101_573
*510 FILLER_0_101_585
*511 FILLER_0_101_597
*512 FILLER_0_101_609
*513 FILLER_0_101_615
*514 FILLER_0_101_617
*515 FILLER_0_101_629
*516 FILLER_0_101_641
*517 FILLER_0_101_653
*518 FILLER_0_101_665
*519 FILLER_0_101_671
*520 FILLER_0_101_673
*521 FILLER_0_101_685
*522 FILLER_0_101_69
*523 FILLER_0_101_697
*524 FILLER_0_101_709
*525 FILLER_0_101_721
*526 FILLER_0_101_727
*527 FILLER_0_101_729
*528 FILLER_0_101_741
*529 FILLER_0_101_753
*530 FILLER_0_101_765
*531 FILLER_0_101_777
*532 FILLER_0_101_783
*533 FILLER_0_101_785
*534 FILLER_0_101_797
*535 FILLER_0_101_809
*536 FILLER_0_101_81
*537 FILLER_0_101_821
*538 FILLER_0_101_93
*539 FILLER_0_102_109
*540 FILLER_0_102_121
*541 FILLER_0_102_133
*542 FILLER_0_102_139
*543 FILLER_0_102_141
*544 FILLER_0_102_15
*545 FILLER_0_102_153
*546 FILLER_0_102_165
*547 FILLER_0_102_177
*548 FILLER_0_102_189
*549 FILLER_0_102_195
*550 FILLER_0_102_197
*551 FILLER_0_102_209
*552 FILLER_0_102_221
*553 FILLER_0_102_233
*554 FILLER_0_102_245
*555 FILLER_0_102_251
*556 FILLER_0_102_253
*557 FILLER_0_102_265
*558 FILLER_0_102_27
*559 FILLER_0_102_277
*560 FILLER_0_102_289
*561 FILLER_0_102_29
*562 FILLER_0_102_3
*563 FILLER_0_102_301
*564 FILLER_0_102_307
*565 FILLER_0_102_309
*566 FILLER_0_102_321
*567 FILLER_0_102_333
*568 FILLER_0_102_345
*569 FILLER_0_102_357
*570 FILLER_0_102_363
*571 FILLER_0_102_365
*572 FILLER_0_102_377
*573 FILLER_0_102_389
*574 FILLER_0_102_401
*575 FILLER_0_102_41
*576 FILLER_0_102_413
*577 FILLER_0_102_419
*578 FILLER_0_102_421
*579 FILLER_0_102_433
*580 FILLER_0_102_445
*581 FILLER_0_102_457
*582 FILLER_0_102_469
*583 FILLER_0_102_475
*584 FILLER_0_102_477
*585 FILLER_0_102_489
*586 FILLER_0_102_501
*587 FILLER_0_102_513
*588 FILLER_0_102_525
*589 FILLER_0_102_53
*590 FILLER_0_102_531
*591 FILLER_0_102_533
*592 FILLER_0_102_545
*593 FILLER_0_102_557
*594 FILLER_0_102_569
*595 FILLER_0_102_581
*596 FILLER_0_102_587
*597 FILLER_0_102_589
*598 FILLER_0_102_601
*599 FILLER_0_102_613
*600 FILLER_0_102_625
*601 FILLER_0_102_637
*602 FILLER_0_102_643
*603 FILLER_0_102_645
*604 FILLER_0_102_65
*605 FILLER_0_102_657
*606 FILLER_0_102_669
*607 FILLER_0_102_681
*608 FILLER_0_102_693
*609 FILLER_0_102_699
*610 FILLER_0_102_701
*611 FILLER_0_102_713
*612 FILLER_0_102_725
*613 FILLER_0_102_737
*614 FILLER_0_102_749
*615 FILLER_0_102_755
*616 FILLER_0_102_757
*617 FILLER_0_102_769
*618 FILLER_0_102_77
*619 FILLER_0_102_781
*620 FILLER_0_102_793
*621 FILLER_0_102_805
*622 FILLER_0_102_811
*623 FILLER_0_102_813
*624 FILLER_0_102_821
*625 FILLER_0_102_83
*626 FILLER_0_102_85
*627 FILLER_0_102_97
*628 FILLER_0_103_105
*629 FILLER_0_103_111
*630 FILLER_0_103_113
*631 FILLER_0_103_125
*632 FILLER_0_103_137
*633 FILLER_0_103_149
*634 FILLER_0_103_15
*635 FILLER_0_103_161
*636 FILLER_0_103_167
*637 FILLER_0_103_169
*638 FILLER_0_103_181
*639 FILLER_0_103_193
*640 FILLER_0_103_205
*641 FILLER_0_103_217
*642 FILLER_0_103_223
*643 FILLER_0_103_225
*644 FILLER_0_103_237
*645 FILLER_0_103_249
*646 FILLER_0_103_261
*647 FILLER_0_103_27
*648 FILLER_0_103_273
*649 FILLER_0_103_279
*650 FILLER_0_103_281
*651 FILLER_0_103_293
*652 FILLER_0_103_3
*653 FILLER_0_103_305
*654 FILLER_0_103_317
*655 FILLER_0_103_329
*656 FILLER_0_103_335
*657 FILLER_0_103_337
*658 FILLER_0_103_349
*659 FILLER_0_103_361
*660 FILLER_0_103_373
*661 FILLER_0_103_385
*662 FILLER_0_103_39
*663 FILLER_0_103_391
*664 FILLER_0_103_393
*665 FILLER_0_103_405
*666 FILLER_0_103_417
*667 FILLER_0_103_429
*668 FILLER_0_103_441
*669 FILLER_0_103_447
*670 FILLER_0_103_449
*671 FILLER_0_103_461
*672 FILLER_0_103_473
*673 FILLER_0_103_485
*674 FILLER_0_103_497
*675 FILLER_0_103_503
*676 FILLER_0_103_505
*677 FILLER_0_103_51
*678 FILLER_0_103_517
*679 FILLER_0_103_529
*680 FILLER_0_103_541
*681 FILLER_0_103_55
*682 FILLER_0_103_553
*683 FILLER_0_103_559
*684 FILLER_0_103_561
*685 FILLER_0_103_57
*686 FILLER_0_103_573
*687 FILLER_0_103_585
*688 FILLER_0_103_597
*689 FILLER_0_103_609
*690 FILLER_0_103_615
*691 FILLER_0_103_617
*692 FILLER_0_103_629
*693 FILLER_0_103_641
*694 FILLER_0_103_653
*695 FILLER_0_103_665
*696 FILLER_0_103_671
*697 FILLER_0_103_673
*698 FILLER_0_103_685
*699 FILLER_0_103_69
*700 FILLER_0_103_697
*701 FILLER_0_103_709
*702 FILLER_0_103_721
*703 FILLER_0_103_727
*704 FILLER_0_103_729
*705 FILLER_0_103_741
*706 FILLER_0_103_753
*707 FILLER_0_103_765
*708 FILLER_0_103_777
*709 FILLER_0_103_783
*710 FILLER_0_103_785
*711 FILLER_0_103_797
*712 FILLER_0_103_809
*713 FILLER_0_103_81
*714 FILLER_0_103_821
*715 FILLER_0_103_93
*716 FILLER_0_104_109
*717 FILLER_0_104_121
*718 FILLER_0_104_133
*719 FILLER_0_104_139
*720 FILLER_0_104_141
*721 FILLER_0_104_15
*722 FILLER_0_104_153
*723 FILLER_0_104_165
*724 FILLER_0_104_177
*725 FILLER_0_104_189
*726 FILLER_0_104_195
*727 FILLER_0_104_197
*728 FILLER_0_104_209
*729 FILLER_0_104_221
*730 FILLER_0_104_233
*731 FILLER_0_104_245
*732 FILLER_0_104_251
*733 FILLER_0_104_253
*734 FILLER_0_104_265
*735 FILLER_0_104_27
*736 FILLER_0_104_277
*737 FILLER_0_104_289
*738 FILLER_0_104_29
*739 FILLER_0_104_3
*740 FILLER_0_104_301
*741 FILLER_0_104_307
*742 FILLER_0_104_309
*743 FILLER_0_104_321
*744 FILLER_0_104_333
*745 FILLER_0_104_345
*746 FILLER_0_104_357
*747 FILLER_0_104_363
*748 FILLER_0_104_365
*749 FILLER_0_104_377
*750 FILLER_0_104_389
*751 FILLER_0_104_401
*752 FILLER_0_104_41
*753 FILLER_0_104_413
*754 FILLER_0_104_419
*755 FILLER_0_104_421
*756 FILLER_0_104_433
*757 FILLER_0_104_445
*758 FILLER_0_104_457
*759 FILLER_0_104_469
*760 FILLER_0_104_475
*761 FILLER_0_104_477
*762 FILLER_0_104_489
*763 FILLER_0_104_501
*764 FILLER_0_104_513
*765 FILLER_0_104_525
*766 FILLER_0_104_53
*767 FILLER_0_104_531
*768 FILLER_0_104_533
*769 FILLER_0_104_545
*770 FILLER_0_104_557
*771 FILLER_0_104_569
*772 FILLER_0_104_581
*773 FILLER_0_104_587
*774 FILLER_0_104_589
*775 FILLER_0_104_601
*776 FILLER_0_104_613
*777 FILLER_0_104_625
*778 FILLER_0_104_637
*779 FILLER_0_104_643
*780 FILLER_0_104_645
*781 FILLER_0_104_65
*782 FILLER_0_104_657
*783 FILLER_0_104_669
*784 FILLER_0_104_681
*785 FILLER_0_104_693
*786 FILLER_0_104_699
*787 FILLER_0_104_701
*788 FILLER_0_104_713
*789 FILLER_0_104_725
*790 FILLER_0_104_737
*791 FILLER_0_104_749
*792 FILLER_0_104_755
*793 FILLER_0_104_757
*794 FILLER_0_104_769
*795 FILLER_0_104_77
*796 FILLER_0_104_781
*797 FILLER_0_104_793
*798 FILLER_0_104_805
*799 FILLER_0_104_811
*800 FILLER_0_104_813
*801 FILLER_0_104_821
*802 FILLER_0_104_83
*803 FILLER_0_104_85
*804 FILLER_0_104_97
*805 FILLER_0_105_105
*806 FILLER_0_105_111
*807 FILLER_0_105_113
*808 FILLER_0_105_125
*809 FILLER_0_105_137
*810 FILLER_0_105_149
*811 FILLER_0_105_15
*812 FILLER_0_105_161
*813 FILLER_0_105_167
*814 FILLER_0_105_169
*815 FILLER_0_105_181
*816 FILLER_0_105_193
*817 FILLER_0_105_205
*818 FILLER_0_105_217
*819 FILLER_0_105_223
*820 FILLER_0_105_225
*821 FILLER_0_105_237
*822 FILLER_0_105_249
*823 FILLER_0_105_261
*824 FILLER_0_105_27
*825 FILLER_0_105_273
*826 FILLER_0_105_279
*827 FILLER_0_105_281
*828 FILLER_0_105_293
*829 FILLER_0_105_3
*830 FILLER_0_105_305
*831 FILLER_0_105_317
*832 FILLER_0_105_329
*833 FILLER_0_105_335
*834 FILLER_0_105_337
*835 FILLER_0_105_349
*836 FILLER_0_105_361
*837 FILLER_0_105_373
*838 FILLER_0_105_385
*839 FILLER_0_105_39
*840 FILLER_0_105_391
*841 FILLER_0_105_393
*842 FILLER_0_105_405
*843 FILLER_0_105_417
*844 FILLER_0_105_429
*845 FILLER_0_105_441
*846 FILLER_0_105_447
*847 FILLER_0_105_449
*848 FILLER_0_105_461
*849 FILLER_0_105_473
*850 FILLER_0_105_485
*851 FILLER_0_105_497
*852 FILLER_0_105_503
*853 FILLER_0_105_505
*854 FILLER_0_105_51
*855 FILLER_0_105_517
*856 FILLER_0_105_529
*857 FILLER_0_105_541
*858 FILLER_0_105_55
*859 FILLER_0_105_553
*860 FILLER_0_105_559
*861 FILLER_0_105_561
*862 FILLER_0_105_57
*863 FILLER_0_105_573
*864 FILLER_0_105_585
*865 FILLER_0_105_597
*866 FILLER_0_105_609
*867 FILLER_0_105_615
*868 FILLER_0_105_617
*869 FILLER_0_105_629
*870 FILLER_0_105_641
*871 FILLER_0_105_653
*872 FILLER_0_105_665
*873 FILLER_0_105_671
*874 FILLER_0_105_673
*875 FILLER_0_105_685
*876 FILLER_0_105_69
*877 FILLER_0_105_697
*878 FILLER_0_105_709
*879 FILLER_0_105_721
*880 FILLER_0_105_727
*881 FILLER_0_105_729
*882 FILLER_0_105_741
*883 FILLER_0_105_753
*884 FILLER_0_105_765
*885 FILLER_0_105_777
*886 FILLER_0_105_783
*887 FILLER_0_105_785
*888 FILLER_0_105_797
*889 FILLER_0_105_809
*890 FILLER_0_105_81
*891 FILLER_0_105_821
*892 FILLER_0_105_93
*893 FILLER_0_106_109
*894 FILLER_0_106_121
*895 FILLER_0_106_133
*896 FILLER_0_106_139
*897 FILLER_0_106_141
*898 FILLER_0_106_15
*899 FILLER_0_106_153
*900 FILLER_0_106_165
*901 FILLER_0_106_177
*902 FILLER_0_106_189
*903 FILLER_0_106_195
*904 FILLER_0_106_197
*905 FILLER_0_106_209
*906 FILLER_0_106_221
*907 FILLER_0_106_233
*908 FILLER_0_106_245
*909 FILLER_0_106_251
*910 FILLER_0_106_253
*911 FILLER_0_106_265
*912 FILLER_0_106_27
*913 FILLER_0_106_277
*914 FILLER_0_106_289
*915 FILLER_0_106_29
*916 FILLER_0_106_3
*917 FILLER_0_106_301
*918 FILLER_0_106_307
*919 FILLER_0_106_309
*920 FILLER_0_106_321
*921 FILLER_0_106_333
*922 FILLER_0_106_345
*923 FILLER_0_106_357
*924 FILLER_0_106_363
*925 FILLER_0_106_365
*926 FILLER_0_106_377
*927 FILLER_0_106_389
*928 FILLER_0_106_401
*929 FILLER_0_106_41
*930 FILLER_0_106_413
*931 FILLER_0_106_419
*932 FILLER_0_106_421
*933 FILLER_0_106_433
*934 FILLER_0_106_445
*935 FILLER_0_106_457
*936 FILLER_0_106_469
*937 FILLER_0_106_475
*938 FILLER_0_106_477
*939 FILLER_0_106_489
*940 FILLER_0_106_501
*941 FILLER_0_106_513
*942 FILLER_0_106_525
*943 FILLER_0_106_53
*944 FILLER_0_106_531
*945 FILLER_0_106_533
*946 FILLER_0_106_545
*947 FILLER_0_106_557
*948 FILLER_0_106_569
*949 FILLER_0_106_581
*950 FILLER_0_106_587
*951 FILLER_0_106_589
*952 FILLER_0_106_601
*953 FILLER_0_106_613
*954 FILLER_0_106_625
*955 FILLER_0_106_637
*956 FILLER_0_106_643
*957 FILLER_0_106_645
*958 FILLER_0_106_65
*959 FILLER_0_106_657
*960 FILLER_0_106_669
*961 FILLER_0_106_681
*962 FILLER_0_106_693
*963 FILLER_0_106_699
*964 FILLER_0_106_701
*965 FILLER_0_106_713
*966 FILLER_0_106_725
*967 FILLER_0_106_737
*968 FILLER_0_106_749
*969 FILLER_0_106_755
*970 FILLER_0_106_757
*971 FILLER_0_106_769
*972 FILLER_0_106_77
*973 FILLER_0_106_781
*974 FILLER_0_106_793
*975 FILLER_0_106_805
*976 FILLER_0_106_811
*977 FILLER_0_106_813
*978 FILLER_0_106_821
*979 FILLER_0_106_83
*980 FILLER_0_106_85
*981 FILLER_0_106_97
*982 FILLER_0_107_105
*983 FILLER_0_107_111
*984 FILLER_0_107_113
*985 FILLER_0_107_125
*986 FILLER_0_107_137
*987 FILLER_0_107_149
*988 FILLER_0_107_15
*989 FILLER_0_107_161
*990 FILLER_0_107_167
*991 FILLER_0_107_169
*992 FILLER_0_107_181
*993 FILLER_0_107_193
*994 FILLER_0_107_205
*995 FILLER_0_107_217
*996 FILLER_0_107_223
*997 FILLER_0_107_225
*998 FILLER_0_107_237
*999 FILLER_0_107_249
*1000 FILLER_0_107_261
*1001 FILLER_0_107_27
*1002 FILLER_0_107_273
*1003 FILLER_0_107_279
*1004 FILLER_0_107_281
*1005 FILLER_0_107_293
*1006 FILLER_0_107_3
*1007 FILLER_0_107_305
*1008 FILLER_0_107_317
*1009 FILLER_0_107_329
*1010 FILLER_0_107_335
*1011 FILLER_0_107_337
*1012 FILLER_0_107_349
*1013 FILLER_0_107_361
*1014 FILLER_0_107_373
*1015 FILLER_0_107_385
*1016 FILLER_0_107_39
*1017 FILLER_0_107_391
*1018 FILLER_0_107_393
*1019 FILLER_0_107_405
*1020 FILLER_0_107_417
*1021 FILLER_0_107_429
*1022 FILLER_0_107_441
*1023 FILLER_0_107_447
*1024 FILLER_0_107_449
*1025 FILLER_0_107_461
*1026 FILLER_0_107_473
*1027 FILLER_0_107_485
*1028 FILLER_0_107_497
*1029 FILLER_0_107_503
*1030 FILLER_0_107_505
*1031 FILLER_0_107_51
*1032 FILLER_0_107_517
*1033 FILLER_0_107_529
*1034 FILLER_0_107_541
*1035 FILLER_0_107_55
*1036 FILLER_0_107_553
*1037 FILLER_0_107_559
*1038 FILLER_0_107_561
*1039 FILLER_0_107_57
*1040 FILLER_0_107_573
*1041 FILLER_0_107_585
*1042 FILLER_0_107_597
*1043 FILLER_0_107_609
*1044 FILLER_0_107_615
*1045 FILLER_0_107_617
*1046 FILLER_0_107_629
*1047 FILLER_0_107_641
*1048 FILLER_0_107_653
*1049 FILLER_0_107_665
*1050 FILLER_0_107_671
*1051 FILLER_0_107_673
*1052 FILLER_0_107_685
*1053 FILLER_0_107_69
*1054 FILLER_0_107_697
*1055 FILLER_0_107_709
*1056 FILLER_0_107_721
*1057 FILLER_0_107_727
*1058 FILLER_0_107_729
*1059 FILLER_0_107_741
*1060 FILLER_0_107_753
*1061 FILLER_0_107_765
*1062 FILLER_0_107_777
*1063 FILLER_0_107_783
*1064 FILLER_0_107_785
*1065 FILLER_0_107_797
*1066 FILLER_0_107_809
*1067 FILLER_0_107_81
*1068 FILLER_0_107_821
*1069 FILLER_0_107_93
*1070 FILLER_0_108_109
*1071 FILLER_0_108_121
*1072 FILLER_0_108_133
*1073 FILLER_0_108_139
*1074 FILLER_0_108_141
*1075 FILLER_0_108_15
*1076 FILLER_0_108_153
*1077 FILLER_0_108_165
*1078 FILLER_0_108_177
*1079 FILLER_0_108_189
*1080 FILLER_0_108_195
*1081 FILLER_0_108_197
*1082 FILLER_0_108_209
*1083 FILLER_0_108_221
*1084 FILLER_0_108_233
*1085 FILLER_0_108_245
*1086 FILLER_0_108_251
*1087 FILLER_0_108_253
*1088 FILLER_0_108_265
*1089 FILLER_0_108_27
*1090 FILLER_0_108_277
*1091 FILLER_0_108_289
*1092 FILLER_0_108_29
*1093 FILLER_0_108_3
*1094 FILLER_0_108_301
*1095 FILLER_0_108_307
*1096 FILLER_0_108_309
*1097 FILLER_0_108_321
*1098 FILLER_0_108_333
*1099 FILLER_0_108_345
*1100 FILLER_0_108_357
*1101 FILLER_0_108_363
*1102 FILLER_0_108_365
*1103 FILLER_0_108_377
*1104 FILLER_0_108_389
*1105 FILLER_0_108_401
*1106 FILLER_0_108_41
*1107 FILLER_0_108_413
*1108 FILLER_0_108_419
*1109 FILLER_0_108_421
*1110 FILLER_0_108_433
*1111 FILLER_0_108_445
*1112 FILLER_0_108_457
*1113 FILLER_0_108_469
*1114 FILLER_0_108_475
*1115 FILLER_0_108_477
*1116 FILLER_0_108_489
*1117 FILLER_0_108_501
*1118 FILLER_0_108_513
*1119 FILLER_0_108_525
*1120 FILLER_0_108_53
*1121 FILLER_0_108_531
*1122 FILLER_0_108_533
*1123 FILLER_0_108_545
*1124 FILLER_0_108_557
*1125 FILLER_0_108_569
*1126 FILLER_0_108_581
*1127 FILLER_0_108_587
*1128 FILLER_0_108_589
*1129 FILLER_0_108_601
*1130 FILLER_0_108_613
*1131 FILLER_0_108_625
*1132 FILLER_0_108_637
*1133 FILLER_0_108_643
*1134 FILLER_0_108_645
*1135 FILLER_0_108_65
*1136 FILLER_0_108_657
*1137 FILLER_0_108_669
*1138 FILLER_0_108_681
*1139 FILLER_0_108_693
*1140 FILLER_0_108_699
*1141 FILLER_0_108_701
*1142 FILLER_0_108_713
*1143 FILLER_0_108_725
*1144 FILLER_0_108_737
*1145 FILLER_0_108_749
*1146 FILLER_0_108_755
*1147 FILLER_0_108_757
*1148 FILLER_0_108_769
*1149 FILLER_0_108_77
*1150 FILLER_0_108_781
*1151 FILLER_0_108_793
*1152 FILLER_0_108_805
*1153 FILLER_0_108_811
*1154 FILLER_0_108_813
*1155 FILLER_0_108_821
*1156 FILLER_0_108_83
*1157 FILLER_0_108_85
*1158 FILLER_0_108_97
*1159 FILLER_0_109_105
*1160 FILLER_0_109_111
*1161 FILLER_0_109_113
*1162 FILLER_0_109_125
*1163 FILLER_0_109_137
*1164 FILLER_0_109_149
*1165 FILLER_0_109_15
*1166 FILLER_0_109_161
*1167 FILLER_0_109_167
*1168 FILLER_0_109_169
*1169 FILLER_0_109_181
*1170 FILLER_0_109_193
*1171 FILLER_0_109_205
*1172 FILLER_0_109_217
*1173 FILLER_0_109_223
*1174 FILLER_0_109_225
*1175 FILLER_0_109_237
*1176 FILLER_0_109_249
*1177 FILLER_0_109_261
*1178 FILLER_0_109_27
*1179 FILLER_0_109_273
*1180 FILLER_0_109_279
*1181 FILLER_0_109_281
*1182 FILLER_0_109_293
*1183 FILLER_0_109_3
*1184 FILLER_0_109_305
*1185 FILLER_0_109_317
*1186 FILLER_0_109_329
*1187 FILLER_0_109_335
*1188 FILLER_0_109_337
*1189 FILLER_0_109_349
*1190 FILLER_0_109_361
*1191 FILLER_0_109_373
*1192 FILLER_0_109_385
*1193 FILLER_0_109_39
*1194 FILLER_0_109_391
*1195 FILLER_0_109_393
*1196 FILLER_0_109_405
*1197 FILLER_0_109_417
*1198 FILLER_0_109_429
*1199 FILLER_0_109_441
*1200 FILLER_0_109_447
*1201 FILLER_0_109_449
*1202 FILLER_0_109_461
*1203 FILLER_0_109_473
*1204 FILLER_0_109_485
*1205 FILLER_0_109_497
*1206 FILLER_0_109_503
*1207 FILLER_0_109_505
*1208 FILLER_0_109_51
*1209 FILLER_0_109_517
*1210 FILLER_0_109_529
*1211 FILLER_0_109_541
*1212 FILLER_0_109_55
*1213 FILLER_0_109_553
*1214 FILLER_0_109_559
*1215 FILLER_0_109_561
*1216 FILLER_0_109_57
*1217 FILLER_0_109_573
*1218 FILLER_0_109_585
*1219 FILLER_0_109_597
*1220 FILLER_0_109_609
*1221 FILLER_0_109_615
*1222 FILLER_0_109_617
*1223 FILLER_0_109_629
*1224 FILLER_0_109_641
*1225 FILLER_0_109_653
*1226 FILLER_0_109_665
*1227 FILLER_0_109_671
*1228 FILLER_0_109_673
*1229 FILLER_0_109_685
*1230 FILLER_0_109_69
*1231 FILLER_0_109_697
*1232 FILLER_0_109_709
*1233 FILLER_0_109_721
*1234 FILLER_0_109_727
*1235 FILLER_0_109_729
*1236 FILLER_0_109_741
*1237 FILLER_0_109_753
*1238 FILLER_0_109_765
*1239 FILLER_0_109_777
*1240 FILLER_0_109_783
*1241 FILLER_0_109_785
*1242 FILLER_0_109_797
*1243 FILLER_0_109_809
*1244 FILLER_0_109_81
*1245 FILLER_0_109_821
*1246 FILLER_0_109_93
*1247 FILLER_0_10_109
*1248 FILLER_0_10_121
*1249 FILLER_0_10_133
*1250 FILLER_0_10_139
*1251 FILLER_0_10_141
*1252 FILLER_0_10_15
*1253 FILLER_0_10_153
*1254 FILLER_0_10_165
*1255 FILLER_0_10_177
*1256 FILLER_0_10_189
*1257 FILLER_0_10_195
*1258 FILLER_0_10_197
*1259 FILLER_0_10_209
*1260 FILLER_0_10_221
*1261 FILLER_0_10_233
*1262 FILLER_0_10_245
*1263 FILLER_0_10_251
*1264 FILLER_0_10_253
*1265 FILLER_0_10_265
*1266 FILLER_0_10_27
*1267 FILLER_0_10_277
*1268 FILLER_0_10_289
*1269 FILLER_0_10_29
*1270 FILLER_0_10_3
*1271 FILLER_0_10_301
*1272 FILLER_0_10_307
*1273 FILLER_0_10_309
*1274 FILLER_0_10_321
*1275 FILLER_0_10_333
*1276 FILLER_0_10_345
*1277 FILLER_0_10_357
*1278 FILLER_0_10_363
*1279 FILLER_0_10_365
*1280 FILLER_0_10_377
*1281 FILLER_0_10_389
*1282 FILLER_0_10_401
*1283 FILLER_0_10_41
*1284 FILLER_0_10_413
*1285 FILLER_0_10_419
*1286 FILLER_0_10_421
*1287 FILLER_0_10_433
*1288 FILLER_0_10_445
*1289 FILLER_0_10_457
*1290 FILLER_0_10_469
*1291 FILLER_0_10_475
*1292 FILLER_0_10_477
*1293 FILLER_0_10_489
*1294 FILLER_0_10_501
*1295 FILLER_0_10_513
*1296 FILLER_0_10_525
*1297 FILLER_0_10_53
*1298 FILLER_0_10_531
*1299 FILLER_0_10_533
*1300 FILLER_0_10_545
*1301 FILLER_0_10_557
*1302 FILLER_0_10_569
*1303 FILLER_0_10_581
*1304 FILLER_0_10_587
*1305 FILLER_0_10_589
*1306 FILLER_0_10_601
*1307 FILLER_0_10_613
*1308 FILLER_0_10_625
*1309 FILLER_0_10_637
*1310 FILLER_0_10_643
*1311 FILLER_0_10_645
*1312 FILLER_0_10_65
*1313 FILLER_0_10_657
*1314 FILLER_0_10_669
*1315 FILLER_0_10_681
*1316 FILLER_0_10_693
*1317 FILLER_0_10_699
*1318 FILLER_0_10_701
*1319 FILLER_0_10_713
*1320 FILLER_0_10_725
*1321 FILLER_0_10_737
*1322 FILLER_0_10_749
*1323 FILLER_0_10_755
*1324 FILLER_0_10_757
*1325 FILLER_0_10_769
*1326 FILLER_0_10_77
*1327 FILLER_0_10_781
*1328 FILLER_0_10_793
*1329 FILLER_0_10_805
*1330 FILLER_0_10_811
*1331 FILLER_0_10_813
*1332 FILLER_0_10_821
*1333 FILLER_0_10_83
*1334 FILLER_0_10_85
*1335 FILLER_0_10_97
*1336 FILLER_0_110_109
*1337 FILLER_0_110_121
*1338 FILLER_0_110_133
*1339 FILLER_0_110_139
*1340 FILLER_0_110_141
*1341 FILLER_0_110_15
*1342 FILLER_0_110_153
*1343 FILLER_0_110_165
*1344 FILLER_0_110_177
*1345 FILLER_0_110_189
*1346 FILLER_0_110_195
*1347 FILLER_0_110_197
*1348 FILLER_0_110_209
*1349 FILLER_0_110_221
*1350 FILLER_0_110_233
*1351 FILLER_0_110_245
*1352 FILLER_0_110_251
*1353 FILLER_0_110_253
*1354 FILLER_0_110_265
*1355 FILLER_0_110_27
*1356 FILLER_0_110_277
*1357 FILLER_0_110_289
*1358 FILLER_0_110_29
*1359 FILLER_0_110_3
*1360 FILLER_0_110_301
*1361 FILLER_0_110_307
*1362 FILLER_0_110_309
*1363 FILLER_0_110_321
*1364 FILLER_0_110_333
*1365 FILLER_0_110_345
*1366 FILLER_0_110_357
*1367 FILLER_0_110_363
*1368 FILLER_0_110_365
*1369 FILLER_0_110_377
*1370 FILLER_0_110_389
*1371 FILLER_0_110_401
*1372 FILLER_0_110_41
*1373 FILLER_0_110_413
*1374 FILLER_0_110_419
*1375 FILLER_0_110_421
*1376 FILLER_0_110_433
*1377 FILLER_0_110_445
*1378 FILLER_0_110_457
*1379 FILLER_0_110_469
*1380 FILLER_0_110_475
*1381 FILLER_0_110_477
*1382 FILLER_0_110_489
*1383 FILLER_0_110_501
*1384 FILLER_0_110_513
*1385 FILLER_0_110_525
*1386 FILLER_0_110_53
*1387 FILLER_0_110_531
*1388 FILLER_0_110_533
*1389 FILLER_0_110_545
*1390 FILLER_0_110_557
*1391 FILLER_0_110_569
*1392 FILLER_0_110_581
*1393 FILLER_0_110_587
*1394 FILLER_0_110_589
*1395 FILLER_0_110_601
*1396 FILLER_0_110_613
*1397 FILLER_0_110_625
*1398 FILLER_0_110_637
*1399 FILLER_0_110_643
*1400 FILLER_0_110_645
*1401 FILLER_0_110_65
*1402 FILLER_0_110_657
*1403 FILLER_0_110_669
*1404 FILLER_0_110_681
*1405 FILLER_0_110_693
*1406 FILLER_0_110_699
*1407 FILLER_0_110_701
*1408 FILLER_0_110_713
*1409 FILLER_0_110_725
*1410 FILLER_0_110_737
*1411 FILLER_0_110_749
*1412 FILLER_0_110_755
*1413 FILLER_0_110_757
*1414 FILLER_0_110_769
*1415 FILLER_0_110_77
*1416 FILLER_0_110_781
*1417 FILLER_0_110_793
*1418 FILLER_0_110_805
*1419 FILLER_0_110_811
*1420 FILLER_0_110_813
*1421 FILLER_0_110_821
*1422 FILLER_0_110_83
*1423 FILLER_0_110_85
*1424 FILLER_0_110_97
*1425 FILLER_0_111_105
*1426 FILLER_0_111_111
*1427 FILLER_0_111_113
*1428 FILLER_0_111_125
*1429 FILLER_0_111_137
*1430 FILLER_0_111_149
*1431 FILLER_0_111_15
*1432 FILLER_0_111_161
*1433 FILLER_0_111_167
*1434 FILLER_0_111_169
*1435 FILLER_0_111_181
*1436 FILLER_0_111_193
*1437 FILLER_0_111_205
*1438 FILLER_0_111_217
*1439 FILLER_0_111_223
*1440 FILLER_0_111_225
*1441 FILLER_0_111_237
*1442 FILLER_0_111_249
*1443 FILLER_0_111_261
*1444 FILLER_0_111_27
*1445 FILLER_0_111_273
*1446 FILLER_0_111_279
*1447 FILLER_0_111_281
*1448 FILLER_0_111_293
*1449 FILLER_0_111_3
*1450 FILLER_0_111_305
*1451 FILLER_0_111_317
*1452 FILLER_0_111_329
*1453 FILLER_0_111_335
*1454 FILLER_0_111_337
*1455 FILLER_0_111_349
*1456 FILLER_0_111_361
*1457 FILLER_0_111_373
*1458 FILLER_0_111_385
*1459 FILLER_0_111_39
*1460 FILLER_0_111_391
*1461 FILLER_0_111_393
*1462 FILLER_0_111_405
*1463 FILLER_0_111_417
*1464 FILLER_0_111_429
*1465 FILLER_0_111_441
*1466 FILLER_0_111_447
*1467 FILLER_0_111_449
*1468 FILLER_0_111_461
*1469 FILLER_0_111_473
*1470 FILLER_0_111_485
*1471 FILLER_0_111_497
*1472 FILLER_0_111_503
*1473 FILLER_0_111_505
*1474 FILLER_0_111_51
*1475 FILLER_0_111_517
*1476 FILLER_0_111_529
*1477 FILLER_0_111_541
*1478 FILLER_0_111_55
*1479 FILLER_0_111_553
*1480 FILLER_0_111_559
*1481 FILLER_0_111_561
*1482 FILLER_0_111_57
*1483 FILLER_0_111_573
*1484 FILLER_0_111_585
*1485 FILLER_0_111_597
*1486 FILLER_0_111_609
*1487 FILLER_0_111_615
*1488 FILLER_0_111_617
*1489 FILLER_0_111_629
*1490 FILLER_0_111_641
*1491 FILLER_0_111_653
*1492 FILLER_0_111_665
*1493 FILLER_0_111_671
*1494 FILLER_0_111_673
*1495 FILLER_0_111_685
*1496 FILLER_0_111_69
*1497 FILLER_0_111_697
*1498 FILLER_0_111_709
*1499 FILLER_0_111_721
*1500 FILLER_0_111_727
*1501 FILLER_0_111_729
*1502 FILLER_0_111_741
*1503 FILLER_0_111_753
*1504 FILLER_0_111_765
*1505 FILLER_0_111_777
*1506 FILLER_0_111_783
*1507 FILLER_0_111_785
*1508 FILLER_0_111_797
*1509 FILLER_0_111_809
*1510 FILLER_0_111_81
*1511 FILLER_0_111_817
*1512 FILLER_0_111_93
*1513 FILLER_0_112_109
*1514 FILLER_0_112_121
*1515 FILLER_0_112_133
*1516 FILLER_0_112_139
*1517 FILLER_0_112_141
*1518 FILLER_0_112_15
*1519 FILLER_0_112_153
*1520 FILLER_0_112_165
*1521 FILLER_0_112_177
*1522 FILLER_0_112_189
*1523 FILLER_0_112_195
*1524 FILLER_0_112_197
*1525 FILLER_0_112_209
*1526 FILLER_0_112_221
*1527 FILLER_0_112_233
*1528 FILLER_0_112_245
*1529 FILLER_0_112_251
*1530 FILLER_0_112_253
*1531 FILLER_0_112_265
*1532 FILLER_0_112_27
*1533 FILLER_0_112_277
*1534 FILLER_0_112_289
*1535 FILLER_0_112_29
*1536 FILLER_0_112_3
*1537 FILLER_0_112_301
*1538 FILLER_0_112_307
*1539 FILLER_0_112_309
*1540 FILLER_0_112_321
*1541 FILLER_0_112_333
*1542 FILLER_0_112_345
*1543 FILLER_0_112_357
*1544 FILLER_0_112_363
*1545 FILLER_0_112_365
*1546 FILLER_0_112_377
*1547 FILLER_0_112_389
*1548 FILLER_0_112_401
*1549 FILLER_0_112_41
*1550 FILLER_0_112_413
*1551 FILLER_0_112_419
*1552 FILLER_0_112_421
*1553 FILLER_0_112_433
*1554 FILLER_0_112_445
*1555 FILLER_0_112_457
*1556 FILLER_0_112_469
*1557 FILLER_0_112_475
*1558 FILLER_0_112_477
*1559 FILLER_0_112_489
*1560 FILLER_0_112_501
*1561 FILLER_0_112_513
*1562 FILLER_0_112_525
*1563 FILLER_0_112_53
*1564 FILLER_0_112_531
*1565 FILLER_0_112_533
*1566 FILLER_0_112_545
*1567 FILLER_0_112_557
*1568 FILLER_0_112_569
*1569 FILLER_0_112_581
*1570 FILLER_0_112_587
*1571 FILLER_0_112_589
*1572 FILLER_0_112_601
*1573 FILLER_0_112_613
*1574 FILLER_0_112_625
*1575 FILLER_0_112_637
*1576 FILLER_0_112_643
*1577 FILLER_0_112_645
*1578 FILLER_0_112_65
*1579 FILLER_0_112_657
*1580 FILLER_0_112_669
*1581 FILLER_0_112_681
*1582 FILLER_0_112_693
*1583 FILLER_0_112_699
*1584 FILLER_0_112_701
*1585 FILLER_0_112_713
*1586 FILLER_0_112_725
*1587 FILLER_0_112_737
*1588 FILLER_0_112_749
*1589 FILLER_0_112_755
*1590 FILLER_0_112_757
*1591 FILLER_0_112_769
*1592 FILLER_0_112_77
*1593 FILLER_0_112_781
*1594 FILLER_0_112_793
*1595 FILLER_0_112_805
*1596 FILLER_0_112_811
*1597 FILLER_0_112_813
*1598 FILLER_0_112_821
*1599 FILLER_0_112_83
*1600 FILLER_0_112_85
*1601 FILLER_0_112_97
*1602 FILLER_0_113_105
*1603 FILLER_0_113_111
*1604 FILLER_0_113_113
*1605 FILLER_0_113_125
*1606 FILLER_0_113_137
*1607 FILLER_0_113_149
*1608 FILLER_0_113_15
*1609 FILLER_0_113_161
*1610 FILLER_0_113_167
*1611 FILLER_0_113_169
*1612 FILLER_0_113_181
*1613 FILLER_0_113_193
*1614 FILLER_0_113_205
*1615 FILLER_0_113_217
*1616 FILLER_0_113_223
*1617 FILLER_0_113_225
*1618 FILLER_0_113_237
*1619 FILLER_0_113_249
*1620 FILLER_0_113_261
*1621 FILLER_0_113_27
*1622 FILLER_0_113_273
*1623 FILLER_0_113_279
*1624 FILLER_0_113_281
*1625 FILLER_0_113_293
*1626 FILLER_0_113_3
*1627 FILLER_0_113_305
*1628 FILLER_0_113_317
*1629 FILLER_0_113_329
*1630 FILLER_0_113_335
*1631 FILLER_0_113_337
*1632 FILLER_0_113_349
*1633 FILLER_0_113_361
*1634 FILLER_0_113_373
*1635 FILLER_0_113_385
*1636 FILLER_0_113_39
*1637 FILLER_0_113_391
*1638 FILLER_0_113_393
*1639 FILLER_0_113_405
*1640 FILLER_0_113_417
*1641 FILLER_0_113_429
*1642 FILLER_0_113_441
*1643 FILLER_0_113_447
*1644 FILLER_0_113_449
*1645 FILLER_0_113_461
*1646 FILLER_0_113_473
*1647 FILLER_0_113_485
*1648 FILLER_0_113_497
*1649 FILLER_0_113_503
*1650 FILLER_0_113_505
*1651 FILLER_0_113_51
*1652 FILLER_0_113_517
*1653 FILLER_0_113_529
*1654 FILLER_0_113_541
*1655 FILLER_0_113_55
*1656 FILLER_0_113_553
*1657 FILLER_0_113_559
*1658 FILLER_0_113_561
*1659 FILLER_0_113_57
*1660 FILLER_0_113_573
*1661 FILLER_0_113_585
*1662 FILLER_0_113_597
*1663 FILLER_0_113_609
*1664 FILLER_0_113_615
*1665 FILLER_0_113_617
*1666 FILLER_0_113_629
*1667 FILLER_0_113_641
*1668 FILLER_0_113_653
*1669 FILLER_0_113_665
*1670 FILLER_0_113_671
*1671 FILLER_0_113_673
*1672 FILLER_0_113_685
*1673 FILLER_0_113_69
*1674 FILLER_0_113_697
*1675 FILLER_0_113_709
*1676 FILLER_0_113_721
*1677 FILLER_0_113_727
*1678 FILLER_0_113_729
*1679 FILLER_0_113_741
*1680 FILLER_0_113_753
*1681 FILLER_0_113_765
*1682 FILLER_0_113_777
*1683 FILLER_0_113_783
*1684 FILLER_0_113_785
*1685 FILLER_0_113_797
*1686 FILLER_0_113_809
*1687 FILLER_0_113_81
*1688 FILLER_0_113_821
*1689 FILLER_0_113_93
*1690 FILLER_0_114_109
*1691 FILLER_0_114_121
*1692 FILLER_0_114_133
*1693 FILLER_0_114_139
*1694 FILLER_0_114_141
*1695 FILLER_0_114_15
*1696 FILLER_0_114_153
*1697 FILLER_0_114_165
*1698 FILLER_0_114_177
*1699 FILLER_0_114_189
*1700 FILLER_0_114_195
*1701 FILLER_0_114_197
*1702 FILLER_0_114_209
*1703 FILLER_0_114_221
*1704 FILLER_0_114_233
*1705 FILLER_0_114_245
*1706 FILLER_0_114_251
*1707 FILLER_0_114_253
*1708 FILLER_0_114_265
*1709 FILLER_0_114_27
*1710 FILLER_0_114_277
*1711 FILLER_0_114_289
*1712 FILLER_0_114_29
*1713 FILLER_0_114_3
*1714 FILLER_0_114_301
*1715 FILLER_0_114_307
*1716 FILLER_0_114_309
*1717 FILLER_0_114_321
*1718 FILLER_0_114_333
*1719 FILLER_0_114_345
*1720 FILLER_0_114_357
*1721 FILLER_0_114_363
*1722 FILLER_0_114_365
*1723 FILLER_0_114_377
*1724 FILLER_0_114_389
*1725 FILLER_0_114_401
*1726 FILLER_0_114_41
*1727 FILLER_0_114_413
*1728 FILLER_0_114_419
*1729 FILLER_0_114_421
*1730 FILLER_0_114_433
*1731 FILLER_0_114_445
*1732 FILLER_0_114_457
*1733 FILLER_0_114_469
*1734 FILLER_0_114_475
*1735 FILLER_0_114_477
*1736 FILLER_0_114_489
*1737 FILLER_0_114_501
*1738 FILLER_0_114_513
*1739 FILLER_0_114_525
*1740 FILLER_0_114_53
*1741 FILLER_0_114_531
*1742 FILLER_0_114_533
*1743 FILLER_0_114_545
*1744 FILLER_0_114_557
*1745 FILLER_0_114_569
*1746 FILLER_0_114_581
*1747 FILLER_0_114_587
*1748 FILLER_0_114_589
*1749 FILLER_0_114_601
*1750 FILLER_0_114_613
*1751 FILLER_0_114_625
*1752 FILLER_0_114_637
*1753 FILLER_0_114_643
*1754 FILLER_0_114_645
*1755 FILLER_0_114_65
*1756 FILLER_0_114_657
*1757 FILLER_0_114_669
*1758 FILLER_0_114_681
*1759 FILLER_0_114_693
*1760 FILLER_0_114_699
*1761 FILLER_0_114_701
*1762 FILLER_0_114_713
*1763 FILLER_0_114_725
*1764 FILLER_0_114_737
*1765 FILLER_0_114_749
*1766 FILLER_0_114_755
*1767 FILLER_0_114_757
*1768 FILLER_0_114_769
*1769 FILLER_0_114_77
*1770 FILLER_0_114_781
*1771 FILLER_0_114_793
*1772 FILLER_0_114_805
*1773 FILLER_0_114_811
*1774 FILLER_0_114_813
*1775 FILLER_0_114_821
*1776 FILLER_0_114_83
*1777 FILLER_0_114_85
*1778 FILLER_0_114_97
*1779 FILLER_0_115_105
*1780 FILLER_0_115_111
*1781 FILLER_0_115_113
*1782 FILLER_0_115_125
*1783 FILLER_0_115_137
*1784 FILLER_0_115_149
*1785 FILLER_0_115_15
*1786 FILLER_0_115_161
*1787 FILLER_0_115_167
*1788 FILLER_0_115_169
*1789 FILLER_0_115_181
*1790 FILLER_0_115_193
*1791 FILLER_0_115_205
*1792 FILLER_0_115_217
*1793 FILLER_0_115_223
*1794 FILLER_0_115_225
*1795 FILLER_0_115_237
*1796 FILLER_0_115_249
*1797 FILLER_0_115_261
*1798 FILLER_0_115_27
*1799 FILLER_0_115_273
*1800 FILLER_0_115_279
*1801 FILLER_0_115_281
*1802 FILLER_0_115_293
*1803 FILLER_0_115_3
*1804 FILLER_0_115_305
*1805 FILLER_0_115_317
*1806 FILLER_0_115_329
*1807 FILLER_0_115_335
*1808 FILLER_0_115_337
*1809 FILLER_0_115_349
*1810 FILLER_0_115_361
*1811 FILLER_0_115_373
*1812 FILLER_0_115_385
*1813 FILLER_0_115_39
*1814 FILLER_0_115_391
*1815 FILLER_0_115_393
*1816 FILLER_0_115_405
*1817 FILLER_0_115_417
*1818 FILLER_0_115_429
*1819 FILLER_0_115_441
*1820 FILLER_0_115_447
*1821 FILLER_0_115_449
*1822 FILLER_0_115_461
*1823 FILLER_0_115_473
*1824 FILLER_0_115_485
*1825 FILLER_0_115_497
*1826 FILLER_0_115_503
*1827 FILLER_0_115_505
*1828 FILLER_0_115_51
*1829 FILLER_0_115_517
*1830 FILLER_0_115_529
*1831 FILLER_0_115_541
*1832 FILLER_0_115_55
*1833 FILLER_0_115_553
*1834 FILLER_0_115_559
*1835 FILLER_0_115_561
*1836 FILLER_0_115_57
*1837 FILLER_0_115_573
*1838 FILLER_0_115_585
*1839 FILLER_0_115_597
*1840 FILLER_0_115_609
*1841 FILLER_0_115_615
*1842 FILLER_0_115_617
*1843 FILLER_0_115_629
*1844 FILLER_0_115_641
*1845 FILLER_0_115_653
*1846 FILLER_0_115_665
*1847 FILLER_0_115_671
*1848 FILLER_0_115_673
*1849 FILLER_0_115_685
*1850 FILLER_0_115_69
*1851 FILLER_0_115_697
*1852 FILLER_0_115_709
*1853 FILLER_0_115_721
*1854 FILLER_0_115_727
*1855 FILLER_0_115_729
*1856 FILLER_0_115_741
*1857 FILLER_0_115_753
*1858 FILLER_0_115_765
*1859 FILLER_0_115_777
*1860 FILLER_0_115_783
*1861 FILLER_0_115_785
*1862 FILLER_0_115_797
*1863 FILLER_0_115_809
*1864 FILLER_0_115_81
*1865 FILLER_0_115_821
*1866 FILLER_0_115_93
*1867 FILLER_0_116_109
*1868 FILLER_0_116_121
*1869 FILLER_0_116_133
*1870 FILLER_0_116_139
*1871 FILLER_0_116_141
*1872 FILLER_0_116_15
*1873 FILLER_0_116_153
*1874 FILLER_0_116_165
*1875 FILLER_0_116_177
*1876 FILLER_0_116_189
*1877 FILLER_0_116_195
*1878 FILLER_0_116_197
*1879 FILLER_0_116_209
*1880 FILLER_0_116_221
*1881 FILLER_0_116_233
*1882 FILLER_0_116_245
*1883 FILLER_0_116_251
*1884 FILLER_0_116_253
*1885 FILLER_0_116_265
*1886 FILLER_0_116_27
*1887 FILLER_0_116_277
*1888 FILLER_0_116_289
*1889 FILLER_0_116_29
*1890 FILLER_0_116_3
*1891 FILLER_0_116_301
*1892 FILLER_0_116_307
*1893 FILLER_0_116_309
*1894 FILLER_0_116_321
*1895 FILLER_0_116_333
*1896 FILLER_0_116_345
*1897 FILLER_0_116_357
*1898 FILLER_0_116_363
*1899 FILLER_0_116_365
*1900 FILLER_0_116_377
*1901 FILLER_0_116_389
*1902 FILLER_0_116_401
*1903 FILLER_0_116_41
*1904 FILLER_0_116_413
*1905 FILLER_0_116_419
*1906 FILLER_0_116_421
*1907 FILLER_0_116_433
*1908 FILLER_0_116_445
*1909 FILLER_0_116_457
*1910 FILLER_0_116_469
*1911 FILLER_0_116_475
*1912 FILLER_0_116_477
*1913 FILLER_0_116_489
*1914 FILLER_0_116_501
*1915 FILLER_0_116_513
*1916 FILLER_0_116_525
*1917 FILLER_0_116_53
*1918 FILLER_0_116_531
*1919 FILLER_0_116_533
*1920 FILLER_0_116_545
*1921 FILLER_0_116_557
*1922 FILLER_0_116_569
*1923 FILLER_0_116_581
*1924 FILLER_0_116_587
*1925 FILLER_0_116_589
*1926 FILLER_0_116_601
*1927 FILLER_0_116_613
*1928 FILLER_0_116_625
*1929 FILLER_0_116_637
*1930 FILLER_0_116_643
*1931 FILLER_0_116_645
*1932 FILLER_0_116_65
*1933 FILLER_0_116_657
*1934 FILLER_0_116_669
*1935 FILLER_0_116_681
*1936 FILLER_0_116_693
*1937 FILLER_0_116_699
*1938 FILLER_0_116_701
*1939 FILLER_0_116_713
*1940 FILLER_0_116_725
*1941 FILLER_0_116_737
*1942 FILLER_0_116_749
*1943 FILLER_0_116_755
*1944 FILLER_0_116_757
*1945 FILLER_0_116_769
*1946 FILLER_0_116_77
*1947 FILLER_0_116_781
*1948 FILLER_0_116_793
*1949 FILLER_0_116_805
*1950 FILLER_0_116_811
*1951 FILLER_0_116_813
*1952 FILLER_0_116_821
*1953 FILLER_0_116_83
*1954 FILLER_0_116_85
*1955 FILLER_0_116_97
*1956 FILLER_0_117_105
*1957 FILLER_0_117_111
*1958 FILLER_0_117_113
*1959 FILLER_0_117_125
*1960 FILLER_0_117_137
*1961 FILLER_0_117_149
*1962 FILLER_0_117_15
*1963 FILLER_0_117_161
*1964 FILLER_0_117_167
*1965 FILLER_0_117_169
*1966 FILLER_0_117_181
*1967 FILLER_0_117_193
*1968 FILLER_0_117_205
*1969 FILLER_0_117_217
*1970 FILLER_0_117_223
*1971 FILLER_0_117_225
*1972 FILLER_0_117_237
*1973 FILLER_0_117_249
*1974 FILLER_0_117_261
*1975 FILLER_0_117_27
*1976 FILLER_0_117_273
*1977 FILLER_0_117_279
*1978 FILLER_0_117_281
*1979 FILLER_0_117_293
*1980 FILLER_0_117_3
*1981 FILLER_0_117_305
*1982 FILLER_0_117_317
*1983 FILLER_0_117_329
*1984 FILLER_0_117_335
*1985 FILLER_0_117_337
*1986 FILLER_0_117_349
*1987 FILLER_0_117_361
*1988 FILLER_0_117_373
*1989 FILLER_0_117_385
*1990 FILLER_0_117_39
*1991 FILLER_0_117_391
*1992 FILLER_0_117_393
*1993 FILLER_0_117_405
*1994 FILLER_0_117_417
*1995 FILLER_0_117_429
*1996 FILLER_0_117_441
*1997 FILLER_0_117_447
*1998 FILLER_0_117_449
*1999 FILLER_0_117_461
*2000 FILLER_0_117_473
*2001 FILLER_0_117_485
*2002 FILLER_0_117_497
*2003 FILLER_0_117_503
*2004 FILLER_0_117_505
*2005 FILLER_0_117_51
*2006 FILLER_0_117_517
*2007 FILLER_0_117_529
*2008 FILLER_0_117_541
*2009 FILLER_0_117_55
*2010 FILLER_0_117_553
*2011 FILLER_0_117_559
*2012 FILLER_0_117_561
*2013 FILLER_0_117_57
*2014 FILLER_0_117_573
*2015 FILLER_0_117_585
*2016 FILLER_0_117_597
*2017 FILLER_0_117_609
*2018 FILLER_0_117_615
*2019 FILLER_0_117_617
*2020 FILLER_0_117_629
*2021 FILLER_0_117_641
*2022 FILLER_0_117_653
*2023 FILLER_0_117_665
*2024 FILLER_0_117_671
*2025 FILLER_0_117_673
*2026 FILLER_0_117_685
*2027 FILLER_0_117_69
*2028 FILLER_0_117_697
*2029 FILLER_0_117_709
*2030 FILLER_0_117_721
*2031 FILLER_0_117_727
*2032 FILLER_0_117_729
*2033 FILLER_0_117_741
*2034 FILLER_0_117_753
*2035 FILLER_0_117_765
*2036 FILLER_0_117_777
*2037 FILLER_0_117_783
*2038 FILLER_0_117_785
*2039 FILLER_0_117_797
*2040 FILLER_0_117_809
*2041 FILLER_0_117_81
*2042 FILLER_0_117_821
*2043 FILLER_0_117_93
*2044 FILLER_0_118_109
*2045 FILLER_0_118_121
*2046 FILLER_0_118_133
*2047 FILLER_0_118_139
*2048 FILLER_0_118_141
*2049 FILLER_0_118_15
*2050 FILLER_0_118_153
*2051 FILLER_0_118_165
*2052 FILLER_0_118_177
*2053 FILLER_0_118_189
*2054 FILLER_0_118_195
*2055 FILLER_0_118_197
*2056 FILLER_0_118_209
*2057 FILLER_0_118_221
*2058 FILLER_0_118_233
*2059 FILLER_0_118_245
*2060 FILLER_0_118_251
*2061 FILLER_0_118_253
*2062 FILLER_0_118_265
*2063 FILLER_0_118_27
*2064 FILLER_0_118_277
*2065 FILLER_0_118_289
*2066 FILLER_0_118_29
*2067 FILLER_0_118_3
*2068 FILLER_0_118_301
*2069 FILLER_0_118_307
*2070 FILLER_0_118_309
*2071 FILLER_0_118_321
*2072 FILLER_0_118_333
*2073 FILLER_0_118_345
*2074 FILLER_0_118_357
*2075 FILLER_0_118_363
*2076 FILLER_0_118_365
*2077 FILLER_0_118_377
*2078 FILLER_0_118_389
*2079 FILLER_0_118_401
*2080 FILLER_0_118_41
*2081 FILLER_0_118_413
*2082 FILLER_0_118_419
*2083 FILLER_0_118_421
*2084 FILLER_0_118_433
*2085 FILLER_0_118_445
*2086 FILLER_0_118_457
*2087 FILLER_0_118_469
*2088 FILLER_0_118_475
*2089 FILLER_0_118_477
*2090 FILLER_0_118_489
*2091 FILLER_0_118_501
*2092 FILLER_0_118_513
*2093 FILLER_0_118_525
*2094 FILLER_0_118_53
*2095 FILLER_0_118_531
*2096 FILLER_0_118_533
*2097 FILLER_0_118_545
*2098 FILLER_0_118_557
*2099 FILLER_0_118_569
*2100 FILLER_0_118_581
*2101 FILLER_0_118_587
*2102 FILLER_0_118_589
*2103 FILLER_0_118_601
*2104 FILLER_0_118_613
*2105 FILLER_0_118_625
*2106 FILLER_0_118_637
*2107 FILLER_0_118_643
*2108 FILLER_0_118_645
*2109 FILLER_0_118_65
*2110 FILLER_0_118_657
*2111 FILLER_0_118_669
*2112 FILLER_0_118_681
*2113 FILLER_0_118_693
*2114 FILLER_0_118_699
*2115 FILLER_0_118_701
*2116 FILLER_0_118_713
*2117 FILLER_0_118_725
*2118 FILLER_0_118_737
*2119 FILLER_0_118_749
*2120 FILLER_0_118_755
*2121 FILLER_0_118_757
*2122 FILLER_0_118_769
*2123 FILLER_0_118_77
*2124 FILLER_0_118_781
*2125 FILLER_0_118_793
*2126 FILLER_0_118_805
*2127 FILLER_0_118_811
*2128 FILLER_0_118_813
*2129 FILLER_0_118_821
*2130 FILLER_0_118_83
*2131 FILLER_0_118_85
*2132 FILLER_0_118_97
*2133 FILLER_0_119_105
*2134 FILLER_0_119_111
*2135 FILLER_0_119_113
*2136 FILLER_0_119_125
*2137 FILLER_0_119_137
*2138 FILLER_0_119_149
*2139 FILLER_0_119_15
*2140 FILLER_0_119_161
*2141 FILLER_0_119_167
*2142 FILLER_0_119_169
*2143 FILLER_0_119_181
*2144 FILLER_0_119_193
*2145 FILLER_0_119_205
*2146 FILLER_0_119_217
*2147 FILLER_0_119_223
*2148 FILLER_0_119_225
*2149 FILLER_0_119_237
*2150 FILLER_0_119_249
*2151 FILLER_0_119_261
*2152 FILLER_0_119_27
*2153 FILLER_0_119_273
*2154 FILLER_0_119_279
*2155 FILLER_0_119_281
*2156 FILLER_0_119_293
*2157 FILLER_0_119_3
*2158 FILLER_0_119_305
*2159 FILLER_0_119_317
*2160 FILLER_0_119_329
*2161 FILLER_0_119_335
*2162 FILLER_0_119_337
*2163 FILLER_0_119_349
*2164 FILLER_0_119_361
*2165 FILLER_0_119_373
*2166 FILLER_0_119_385
*2167 FILLER_0_119_39
*2168 FILLER_0_119_391
*2169 FILLER_0_119_393
*2170 FILLER_0_119_405
*2171 FILLER_0_119_417
*2172 FILLER_0_119_429
*2173 FILLER_0_119_441
*2174 FILLER_0_119_447
*2175 FILLER_0_119_449
*2176 FILLER_0_119_461
*2177 FILLER_0_119_473
*2178 FILLER_0_119_485
*2179 FILLER_0_119_497
*2180 FILLER_0_119_503
*2181 FILLER_0_119_505
*2182 FILLER_0_119_51
*2183 FILLER_0_119_517
*2184 FILLER_0_119_529
*2185 FILLER_0_119_541
*2186 FILLER_0_119_55
*2187 FILLER_0_119_553
*2188 FILLER_0_119_559
*2189 FILLER_0_119_561
*2190 FILLER_0_119_57
*2191 FILLER_0_119_573
*2192 FILLER_0_119_585
*2193 FILLER_0_119_597
*2194 FILLER_0_119_609
*2195 FILLER_0_119_615
*2196 FILLER_0_119_617
*2197 FILLER_0_119_629
*2198 FILLER_0_119_641
*2199 FILLER_0_119_653
*2200 FILLER_0_119_665
*2201 FILLER_0_119_671
*2202 FILLER_0_119_673
*2203 FILLER_0_119_685
*2204 FILLER_0_119_69
*2205 FILLER_0_119_697
*2206 FILLER_0_119_709
*2207 FILLER_0_119_721
*2208 FILLER_0_119_727
*2209 FILLER_0_119_729
*2210 FILLER_0_119_741
*2211 FILLER_0_119_753
*2212 FILLER_0_119_765
*2213 FILLER_0_119_777
*2214 FILLER_0_119_783
*2215 FILLER_0_119_785
*2216 FILLER_0_119_797
*2217 FILLER_0_119_809
*2218 FILLER_0_119_81
*2219 FILLER_0_119_821
*2220 FILLER_0_119_93
*2221 FILLER_0_11_105
*2222 FILLER_0_11_111
*2223 FILLER_0_11_113
*2224 FILLER_0_11_125
*2225 FILLER_0_11_137
*2226 FILLER_0_11_149
*2227 FILLER_0_11_15
*2228 FILLER_0_11_161
*2229 FILLER_0_11_167
*2230 FILLER_0_11_169
*2231 FILLER_0_11_181
*2232 FILLER_0_11_193
*2233 FILLER_0_11_205
*2234 FILLER_0_11_217
*2235 FILLER_0_11_223
*2236 FILLER_0_11_225
*2237 FILLER_0_11_237
*2238 FILLER_0_11_249
*2239 FILLER_0_11_261
*2240 FILLER_0_11_27
*2241 FILLER_0_11_273
*2242 FILLER_0_11_279
*2243 FILLER_0_11_281
*2244 FILLER_0_11_293
*2245 FILLER_0_11_3
*2246 FILLER_0_11_305
*2247 FILLER_0_11_317
*2248 FILLER_0_11_329
*2249 FILLER_0_11_335
*2250 FILLER_0_11_337
*2251 FILLER_0_11_349
*2252 FILLER_0_11_361
*2253 FILLER_0_11_373
*2254 FILLER_0_11_385
*2255 FILLER_0_11_39
*2256 FILLER_0_11_391
*2257 FILLER_0_11_393
*2258 FILLER_0_11_405
*2259 FILLER_0_11_417
*2260 FILLER_0_11_429
*2261 FILLER_0_11_441
*2262 FILLER_0_11_447
*2263 FILLER_0_11_449
*2264 FILLER_0_11_461
*2265 FILLER_0_11_473
*2266 FILLER_0_11_485
*2267 FILLER_0_11_497
*2268 FILLER_0_11_503
*2269 FILLER_0_11_505
*2270 FILLER_0_11_51
*2271 FILLER_0_11_517
*2272 FILLER_0_11_529
*2273 FILLER_0_11_541
*2274 FILLER_0_11_55
*2275 FILLER_0_11_553
*2276 FILLER_0_11_559
*2277 FILLER_0_11_561
*2278 FILLER_0_11_57
*2279 FILLER_0_11_573
*2280 FILLER_0_11_585
*2281 FILLER_0_11_597
*2282 FILLER_0_11_609
*2283 FILLER_0_11_615
*2284 FILLER_0_11_617
*2285 FILLER_0_11_629
*2286 FILLER_0_11_641
*2287 FILLER_0_11_653
*2288 FILLER_0_11_665
*2289 FILLER_0_11_671
*2290 FILLER_0_11_673
*2291 FILLER_0_11_685
*2292 FILLER_0_11_69
*2293 FILLER_0_11_697
*2294 FILLER_0_11_709
*2295 FILLER_0_11_721
*2296 FILLER_0_11_727
*2297 FILLER_0_11_729
*2298 FILLER_0_11_741
*2299 FILLER_0_11_753
*2300 FILLER_0_11_765
*2301 FILLER_0_11_777
*2302 FILLER_0_11_783
*2303 FILLER_0_11_785
*2304 FILLER_0_11_797
*2305 FILLER_0_11_809
*2306 FILLER_0_11_81
*2307 FILLER_0_11_821
*2308 FILLER_0_11_93
*2309 FILLER_0_120_109
*2310 FILLER_0_120_121
*2311 FILLER_0_120_133
*2312 FILLER_0_120_139
*2313 FILLER_0_120_141
*2314 FILLER_0_120_15
*2315 FILLER_0_120_153
*2316 FILLER_0_120_165
*2317 FILLER_0_120_177
*2318 FILLER_0_120_189
*2319 FILLER_0_120_195
*2320 FILLER_0_120_197
*2321 FILLER_0_120_209
*2322 FILLER_0_120_221
*2323 FILLER_0_120_233
*2324 FILLER_0_120_245
*2325 FILLER_0_120_251
*2326 FILLER_0_120_253
*2327 FILLER_0_120_265
*2328 FILLER_0_120_27
*2329 FILLER_0_120_277
*2330 FILLER_0_120_289
*2331 FILLER_0_120_29
*2332 FILLER_0_120_3
*2333 FILLER_0_120_301
*2334 FILLER_0_120_307
*2335 FILLER_0_120_309
*2336 FILLER_0_120_321
*2337 FILLER_0_120_333
*2338 FILLER_0_120_345
*2339 FILLER_0_120_357
*2340 FILLER_0_120_363
*2341 FILLER_0_120_365
*2342 FILLER_0_120_377
*2343 FILLER_0_120_389
*2344 FILLER_0_120_401
*2345 FILLER_0_120_41
*2346 FILLER_0_120_413
*2347 FILLER_0_120_419
*2348 FILLER_0_120_421
*2349 FILLER_0_120_433
*2350 FILLER_0_120_445
*2351 FILLER_0_120_457
*2352 FILLER_0_120_469
*2353 FILLER_0_120_475
*2354 FILLER_0_120_477
*2355 FILLER_0_120_489
*2356 FILLER_0_120_501
*2357 FILLER_0_120_513
*2358 FILLER_0_120_525
*2359 FILLER_0_120_53
*2360 FILLER_0_120_531
*2361 FILLER_0_120_533
*2362 FILLER_0_120_545
*2363 FILLER_0_120_557
*2364 FILLER_0_120_569
*2365 FILLER_0_120_581
*2366 FILLER_0_120_587
*2367 FILLER_0_120_589
*2368 FILLER_0_120_601
*2369 FILLER_0_120_613
*2370 FILLER_0_120_625
*2371 FILLER_0_120_637
*2372 FILLER_0_120_643
*2373 FILLER_0_120_645
*2374 FILLER_0_120_65
*2375 FILLER_0_120_657
*2376 FILLER_0_120_669
*2377 FILLER_0_120_681
*2378 FILLER_0_120_693
*2379 FILLER_0_120_699
*2380 FILLER_0_120_701
*2381 FILLER_0_120_713
*2382 FILLER_0_120_725
*2383 FILLER_0_120_737
*2384 FILLER_0_120_749
*2385 FILLER_0_120_755
*2386 FILLER_0_120_757
*2387 FILLER_0_120_769
*2388 FILLER_0_120_77
*2389 FILLER_0_120_781
*2390 FILLER_0_120_793
*2391 FILLER_0_120_805
*2392 FILLER_0_120_811
*2393 FILLER_0_120_813
*2394 FILLER_0_120_821
*2395 FILLER_0_120_83
*2396 FILLER_0_120_85
*2397 FILLER_0_120_97
*2398 FILLER_0_121_105
*2399 FILLER_0_121_111
*2400 FILLER_0_121_113
*2401 FILLER_0_121_125
*2402 FILLER_0_121_137
*2403 FILLER_0_121_149
*2404 FILLER_0_121_161
*2405 FILLER_0_121_167
*2406 FILLER_0_121_169
*2407 FILLER_0_121_181
*2408 FILLER_0_121_193
*2409 FILLER_0_121_205
*2410 FILLER_0_121_21
*2411 FILLER_0_121_217
*2412 FILLER_0_121_223
*2413 FILLER_0_121_225
*2414 FILLER_0_121_237
*2415 FILLER_0_121_249
*2416 FILLER_0_121_261
*2417 FILLER_0_121_273
*2418 FILLER_0_121_279
*2419 FILLER_0_121_281
*2420 FILLER_0_121_293
*2421 FILLER_0_121_305
*2422 FILLER_0_121_317
*2423 FILLER_0_121_329
*2424 FILLER_0_121_33
*2425 FILLER_0_121_335
*2426 FILLER_0_121_337
*2427 FILLER_0_121_349
*2428 FILLER_0_121_361
*2429 FILLER_0_121_373
*2430 FILLER_0_121_385
*2431 FILLER_0_121_391
*2432 FILLER_0_121_393
*2433 FILLER_0_121_405
*2434 FILLER_0_121_417
*2435 FILLER_0_121_429
*2436 FILLER_0_121_441
*2437 FILLER_0_121_447
*2438 FILLER_0_121_449
*2439 FILLER_0_121_45
*2440 FILLER_0_121_461
*2441 FILLER_0_121_473
*2442 FILLER_0_121_485
*2443 FILLER_0_121_497
*2444 FILLER_0_121_503
*2445 FILLER_0_121_505
*2446 FILLER_0_121_517
*2447 FILLER_0_121_529
*2448 FILLER_0_121_53
*2449 FILLER_0_121_541
*2450 FILLER_0_121_553
*2451 FILLER_0_121_559
*2452 FILLER_0_121_561
*2453 FILLER_0_121_57
*2454 FILLER_0_121_573
*2455 FILLER_0_121_585
*2456 FILLER_0_121_597
*2457 FILLER_0_121_609
*2458 FILLER_0_121_615
*2459 FILLER_0_121_617
*2460 FILLER_0_121_629
*2461 FILLER_0_121_641
*2462 FILLER_0_121_653
*2463 FILLER_0_121_665
*2464 FILLER_0_121_671
*2465 FILLER_0_121_673
*2466 FILLER_0_121_685
*2467 FILLER_0_121_69
*2468 FILLER_0_121_697
*2469 FILLER_0_121_709
*2470 FILLER_0_121_721
*2471 FILLER_0_121_727
*2472 FILLER_0_121_729
*2473 FILLER_0_121_741
*2474 FILLER_0_121_753
*2475 FILLER_0_121_765
*2476 FILLER_0_121_777
*2477 FILLER_0_121_783
*2478 FILLER_0_121_785
*2479 FILLER_0_121_797
*2480 FILLER_0_121_809
*2481 FILLER_0_121_81
*2482 FILLER_0_121_821
*2483 FILLER_0_121_9
*2484 FILLER_0_121_93
*2485 FILLER_0_122_109
*2486 FILLER_0_122_121
*2487 FILLER_0_122_133
*2488 FILLER_0_122_139
*2489 FILLER_0_122_141
*2490 FILLER_0_122_15
*2491 FILLER_0_122_153
*2492 FILLER_0_122_165
*2493 FILLER_0_122_177
*2494 FILLER_0_122_189
*2495 FILLER_0_122_195
*2496 FILLER_0_122_197
*2497 FILLER_0_122_209
*2498 FILLER_0_122_221
*2499 FILLER_0_122_233
*2500 FILLER_0_122_245
*2501 FILLER_0_122_251
*2502 FILLER_0_122_253
*2503 FILLER_0_122_265
*2504 FILLER_0_122_27
*2505 FILLER_0_122_277
*2506 FILLER_0_122_289
*2507 FILLER_0_122_29
*2508 FILLER_0_122_3
*2509 FILLER_0_122_301
*2510 FILLER_0_122_307
*2511 FILLER_0_122_309
*2512 FILLER_0_122_321
*2513 FILLER_0_122_333
*2514 FILLER_0_122_345
*2515 FILLER_0_122_357
*2516 FILLER_0_122_363
*2517 FILLER_0_122_365
*2518 FILLER_0_122_377
*2519 FILLER_0_122_389
*2520 FILLER_0_122_401
*2521 FILLER_0_122_41
*2522 FILLER_0_122_413
*2523 FILLER_0_122_419
*2524 FILLER_0_122_421
*2525 FILLER_0_122_433
*2526 FILLER_0_122_445
*2527 FILLER_0_122_457
*2528 FILLER_0_122_469
*2529 FILLER_0_122_475
*2530 FILLER_0_122_477
*2531 FILLER_0_122_489
*2532 FILLER_0_122_501
*2533 FILLER_0_122_513
*2534 FILLER_0_122_525
*2535 FILLER_0_122_53
*2536 FILLER_0_122_531
*2537 FILLER_0_122_533
*2538 FILLER_0_122_545
*2539 FILLER_0_122_557
*2540 FILLER_0_122_569
*2541 FILLER_0_122_581
*2542 FILLER_0_122_587
*2543 FILLER_0_122_589
*2544 FILLER_0_122_601
*2545 FILLER_0_122_613
*2546 FILLER_0_122_625
*2547 FILLER_0_122_637
*2548 FILLER_0_122_643
*2549 FILLER_0_122_645
*2550 FILLER_0_122_65
*2551 FILLER_0_122_657
*2552 FILLER_0_122_669
*2553 FILLER_0_122_681
*2554 FILLER_0_122_693
*2555 FILLER_0_122_699
*2556 FILLER_0_122_701
*2557 FILLER_0_122_713
*2558 FILLER_0_122_725
*2559 FILLER_0_122_737
*2560 FILLER_0_122_749
*2561 FILLER_0_122_755
*2562 FILLER_0_122_757
*2563 FILLER_0_122_769
*2564 FILLER_0_122_77
*2565 FILLER_0_122_781
*2566 FILLER_0_122_793
*2567 FILLER_0_122_805
*2568 FILLER_0_122_811
*2569 FILLER_0_122_813
*2570 FILLER_0_122_821
*2571 FILLER_0_122_83
*2572 FILLER_0_122_85
*2573 FILLER_0_122_97
*2574 FILLER_0_123_105
*2575 FILLER_0_123_111
*2576 FILLER_0_123_113
*2577 FILLER_0_123_125
*2578 FILLER_0_123_137
*2579 FILLER_0_123_149
*2580 FILLER_0_123_15
*2581 FILLER_0_123_161
*2582 FILLER_0_123_167
*2583 FILLER_0_123_169
*2584 FILLER_0_123_181
*2585 FILLER_0_123_193
*2586 FILLER_0_123_205
*2587 FILLER_0_123_217
*2588 FILLER_0_123_223
*2589 FILLER_0_123_225
*2590 FILLER_0_123_237
*2591 FILLER_0_123_249
*2592 FILLER_0_123_261
*2593 FILLER_0_123_27
*2594 FILLER_0_123_273
*2595 FILLER_0_123_279
*2596 FILLER_0_123_281
*2597 FILLER_0_123_293
*2598 FILLER_0_123_3
*2599 FILLER_0_123_305
*2600 FILLER_0_123_317
*2601 FILLER_0_123_329
*2602 FILLER_0_123_335
*2603 FILLER_0_123_337
*2604 FILLER_0_123_349
*2605 FILLER_0_123_361
*2606 FILLER_0_123_373
*2607 FILLER_0_123_385
*2608 FILLER_0_123_39
*2609 FILLER_0_123_391
*2610 FILLER_0_123_393
*2611 FILLER_0_123_405
*2612 FILLER_0_123_417
*2613 FILLER_0_123_429
*2614 FILLER_0_123_441
*2615 FILLER_0_123_447
*2616 FILLER_0_123_449
*2617 FILLER_0_123_461
*2618 FILLER_0_123_473
*2619 FILLER_0_123_485
*2620 FILLER_0_123_497
*2621 FILLER_0_123_503
*2622 FILLER_0_123_505
*2623 FILLER_0_123_51
*2624 FILLER_0_123_517
*2625 FILLER_0_123_529
*2626 FILLER_0_123_541
*2627 FILLER_0_123_55
*2628 FILLER_0_123_553
*2629 FILLER_0_123_559
*2630 FILLER_0_123_561
*2631 FILLER_0_123_57
*2632 FILLER_0_123_573
*2633 FILLER_0_123_585
*2634 FILLER_0_123_597
*2635 FILLER_0_123_609
*2636 FILLER_0_123_615
*2637 FILLER_0_123_617
*2638 FILLER_0_123_629
*2639 FILLER_0_123_641
*2640 FILLER_0_123_653
*2641 FILLER_0_123_665
*2642 FILLER_0_123_671
*2643 FILLER_0_123_673
*2644 FILLER_0_123_685
*2645 FILLER_0_123_69
*2646 FILLER_0_123_697
*2647 FILLER_0_123_709
*2648 FILLER_0_123_721
*2649 FILLER_0_123_727
*2650 FILLER_0_123_729
*2651 FILLER_0_123_741
*2652 FILLER_0_123_753
*2653 FILLER_0_123_765
*2654 FILLER_0_123_777
*2655 FILLER_0_123_783
*2656 FILLER_0_123_785
*2657 FILLER_0_123_797
*2658 FILLER_0_123_809
*2659 FILLER_0_123_81
*2660 FILLER_0_123_821
*2661 FILLER_0_123_93
*2662 FILLER_0_124_109
*2663 FILLER_0_124_121
*2664 FILLER_0_124_133
*2665 FILLER_0_124_139
*2666 FILLER_0_124_141
*2667 FILLER_0_124_15
*2668 FILLER_0_124_153
*2669 FILLER_0_124_165
*2670 FILLER_0_124_177
*2671 FILLER_0_124_189
*2672 FILLER_0_124_195
*2673 FILLER_0_124_197
*2674 FILLER_0_124_209
*2675 FILLER_0_124_221
*2676 FILLER_0_124_233
*2677 FILLER_0_124_245
*2678 FILLER_0_124_251
*2679 FILLER_0_124_253
*2680 FILLER_0_124_265
*2681 FILLER_0_124_27
*2682 FILLER_0_124_277
*2683 FILLER_0_124_289
*2684 FILLER_0_124_29
*2685 FILLER_0_124_3
*2686 FILLER_0_124_301
*2687 FILLER_0_124_307
*2688 FILLER_0_124_309
*2689 FILLER_0_124_321
*2690 FILLER_0_124_333
*2691 FILLER_0_124_345
*2692 FILLER_0_124_357
*2693 FILLER_0_124_363
*2694 FILLER_0_124_365
*2695 FILLER_0_124_377
*2696 FILLER_0_124_389
*2697 FILLER_0_124_401
*2698 FILLER_0_124_41
*2699 FILLER_0_124_413
*2700 FILLER_0_124_419
*2701 FILLER_0_124_421
*2702 FILLER_0_124_433
*2703 FILLER_0_124_445
*2704 FILLER_0_124_457
*2705 FILLER_0_124_469
*2706 FILLER_0_124_475
*2707 FILLER_0_124_477
*2708 FILLER_0_124_489
*2709 FILLER_0_124_501
*2710 FILLER_0_124_513
*2711 FILLER_0_124_525
*2712 FILLER_0_124_53
*2713 FILLER_0_124_531
*2714 FILLER_0_124_533
*2715 FILLER_0_124_545
*2716 FILLER_0_124_557
*2717 FILLER_0_124_569
*2718 FILLER_0_124_581
*2719 FILLER_0_124_587
*2720 FILLER_0_124_589
*2721 FILLER_0_124_601
*2722 FILLER_0_124_613
*2723 FILLER_0_124_625
*2724 FILLER_0_124_637
*2725 FILLER_0_124_643
*2726 FILLER_0_124_645
*2727 FILLER_0_124_65
*2728 FILLER_0_124_657
*2729 FILLER_0_124_669
*2730 FILLER_0_124_681
*2731 FILLER_0_124_693
*2732 FILLER_0_124_699
*2733 FILLER_0_124_701
*2734 FILLER_0_124_713
*2735 FILLER_0_124_725
*2736 FILLER_0_124_737
*2737 FILLER_0_124_749
*2738 FILLER_0_124_755
*2739 FILLER_0_124_757
*2740 FILLER_0_124_769
*2741 FILLER_0_124_77
*2742 FILLER_0_124_781
*2743 FILLER_0_124_793
*2744 FILLER_0_124_805
*2745 FILLER_0_124_811
*2746 FILLER_0_124_813
*2747 FILLER_0_124_821
*2748 FILLER_0_124_83
*2749 FILLER_0_124_85
*2750 FILLER_0_124_97
*2751 FILLER_0_125_105
*2752 FILLER_0_125_111
*2753 FILLER_0_125_113
*2754 FILLER_0_125_125
*2755 FILLER_0_125_137
*2756 FILLER_0_125_149
*2757 FILLER_0_125_15
*2758 FILLER_0_125_161
*2759 FILLER_0_125_167
*2760 FILLER_0_125_169
*2761 FILLER_0_125_181
*2762 FILLER_0_125_193
*2763 FILLER_0_125_205
*2764 FILLER_0_125_217
*2765 FILLER_0_125_223
*2766 FILLER_0_125_225
*2767 FILLER_0_125_237
*2768 FILLER_0_125_249
*2769 FILLER_0_125_261
*2770 FILLER_0_125_27
*2771 FILLER_0_125_273
*2772 FILLER_0_125_279
*2773 FILLER_0_125_281
*2774 FILLER_0_125_293
*2775 FILLER_0_125_3
*2776 FILLER_0_125_305
*2777 FILLER_0_125_317
*2778 FILLER_0_125_329
*2779 FILLER_0_125_335
*2780 FILLER_0_125_337
*2781 FILLER_0_125_349
*2782 FILLER_0_125_361
*2783 FILLER_0_125_373
*2784 FILLER_0_125_385
*2785 FILLER_0_125_39
*2786 FILLER_0_125_391
*2787 FILLER_0_125_393
*2788 FILLER_0_125_405
*2789 FILLER_0_125_417
*2790 FILLER_0_125_429
*2791 FILLER_0_125_441
*2792 FILLER_0_125_447
*2793 FILLER_0_125_449
*2794 FILLER_0_125_461
*2795 FILLER_0_125_473
*2796 FILLER_0_125_485
*2797 FILLER_0_125_497
*2798 FILLER_0_125_503
*2799 FILLER_0_125_505
*2800 FILLER_0_125_51
*2801 FILLER_0_125_517
*2802 FILLER_0_125_529
*2803 FILLER_0_125_541
*2804 FILLER_0_125_55
*2805 FILLER_0_125_553
*2806 FILLER_0_125_559
*2807 FILLER_0_125_561
*2808 FILLER_0_125_57
*2809 FILLER_0_125_573
*2810 FILLER_0_125_585
*2811 FILLER_0_125_597
*2812 FILLER_0_125_609
*2813 FILLER_0_125_615
*2814 FILLER_0_125_617
*2815 FILLER_0_125_629
*2816 FILLER_0_125_641
*2817 FILLER_0_125_653
*2818 FILLER_0_125_665
*2819 FILLER_0_125_671
*2820 FILLER_0_125_673
*2821 FILLER_0_125_685
*2822 FILLER_0_125_69
*2823 FILLER_0_125_697
*2824 FILLER_0_125_709
*2825 FILLER_0_125_721
*2826 FILLER_0_125_727
*2827 FILLER_0_125_729
*2828 FILLER_0_125_741
*2829 FILLER_0_125_753
*2830 FILLER_0_125_765
*2831 FILLER_0_125_777
*2832 FILLER_0_125_783
*2833 FILLER_0_125_785
*2834 FILLER_0_125_797
*2835 FILLER_0_125_809
*2836 FILLER_0_125_81
*2837 FILLER_0_125_821
*2838 FILLER_0_125_93
*2839 FILLER_0_126_109
*2840 FILLER_0_126_121
*2841 FILLER_0_126_133
*2842 FILLER_0_126_139
*2843 FILLER_0_126_141
*2844 FILLER_0_126_15
*2845 FILLER_0_126_153
*2846 FILLER_0_126_165
*2847 FILLER_0_126_177
*2848 FILLER_0_126_189
*2849 FILLER_0_126_195
*2850 FILLER_0_126_197
*2851 FILLER_0_126_209
*2852 FILLER_0_126_221
*2853 FILLER_0_126_233
*2854 FILLER_0_126_245
*2855 FILLER_0_126_251
*2856 FILLER_0_126_253
*2857 FILLER_0_126_265
*2858 FILLER_0_126_27
*2859 FILLER_0_126_277
*2860 FILLER_0_126_289
*2861 FILLER_0_126_29
*2862 FILLER_0_126_3
*2863 FILLER_0_126_301
*2864 FILLER_0_126_307
*2865 FILLER_0_126_309
*2866 FILLER_0_126_321
*2867 FILLER_0_126_333
*2868 FILLER_0_126_345
*2869 FILLER_0_126_357
*2870 FILLER_0_126_363
*2871 FILLER_0_126_365
*2872 FILLER_0_126_377
*2873 FILLER_0_126_389
*2874 FILLER_0_126_401
*2875 FILLER_0_126_41
*2876 FILLER_0_126_413
*2877 FILLER_0_126_419
*2878 FILLER_0_126_421
*2879 FILLER_0_126_433
*2880 FILLER_0_126_445
*2881 FILLER_0_126_457
*2882 FILLER_0_126_469
*2883 FILLER_0_126_475
*2884 FILLER_0_126_477
*2885 FILLER_0_126_489
*2886 FILLER_0_126_501
*2887 FILLER_0_126_513
*2888 FILLER_0_126_525
*2889 FILLER_0_126_53
*2890 FILLER_0_126_531
*2891 FILLER_0_126_533
*2892 FILLER_0_126_545
*2893 FILLER_0_126_557
*2894 FILLER_0_126_569
*2895 FILLER_0_126_581
*2896 FILLER_0_126_587
*2897 FILLER_0_126_589
*2898 FILLER_0_126_601
*2899 FILLER_0_126_613
*2900 FILLER_0_126_625
*2901 FILLER_0_126_637
*2902 FILLER_0_126_643
*2903 FILLER_0_126_645
*2904 FILLER_0_126_65
*2905 FILLER_0_126_657
*2906 FILLER_0_126_669
*2907 FILLER_0_126_681
*2908 FILLER_0_126_693
*2909 FILLER_0_126_699
*2910 FILLER_0_126_701
*2911 FILLER_0_126_713
*2912 FILLER_0_126_725
*2913 FILLER_0_126_737
*2914 FILLER_0_126_749
*2915 FILLER_0_126_755
*2916 FILLER_0_126_757
*2917 FILLER_0_126_769
*2918 FILLER_0_126_77
*2919 FILLER_0_126_781
*2920 FILLER_0_126_793
*2921 FILLER_0_126_805
*2922 FILLER_0_126_811
*2923 FILLER_0_126_813
*2924 FILLER_0_126_821
*2925 FILLER_0_126_83
*2926 FILLER_0_126_85
*2927 FILLER_0_126_97
*2928 FILLER_0_127_105
*2929 FILLER_0_127_111
*2930 FILLER_0_127_113
*2931 FILLER_0_127_125
*2932 FILLER_0_127_137
*2933 FILLER_0_127_149
*2934 FILLER_0_127_15
*2935 FILLER_0_127_161
*2936 FILLER_0_127_167
*2937 FILLER_0_127_169
*2938 FILLER_0_127_181
*2939 FILLER_0_127_193
*2940 FILLER_0_127_205
*2941 FILLER_0_127_217
*2942 FILLER_0_127_223
*2943 FILLER_0_127_225
*2944 FILLER_0_127_237
*2945 FILLER_0_127_249
*2946 FILLER_0_127_261
*2947 FILLER_0_127_27
*2948 FILLER_0_127_273
*2949 FILLER_0_127_279
*2950 FILLER_0_127_281
*2951 FILLER_0_127_293
*2952 FILLER_0_127_3
*2953 FILLER_0_127_305
*2954 FILLER_0_127_317
*2955 FILLER_0_127_329
*2956 FILLER_0_127_335
*2957 FILLER_0_127_337
*2958 FILLER_0_127_349
*2959 FILLER_0_127_361
*2960 FILLER_0_127_373
*2961 FILLER_0_127_385
*2962 FILLER_0_127_39
*2963 FILLER_0_127_391
*2964 FILLER_0_127_393
*2965 FILLER_0_127_405
*2966 FILLER_0_127_417
*2967 FILLER_0_127_429
*2968 FILLER_0_127_441
*2969 FILLER_0_127_447
*2970 FILLER_0_127_449
*2971 FILLER_0_127_461
*2972 FILLER_0_127_473
*2973 FILLER_0_127_485
*2974 FILLER_0_127_497
*2975 FILLER_0_127_503
*2976 FILLER_0_127_505
*2977 FILLER_0_127_51
*2978 FILLER_0_127_517
*2979 FILLER_0_127_529
*2980 FILLER_0_127_541
*2981 FILLER_0_127_55
*2982 FILLER_0_127_553
*2983 FILLER_0_127_559
*2984 FILLER_0_127_561
*2985 FILLER_0_127_57
*2986 FILLER_0_127_573
*2987 FILLER_0_127_585
*2988 FILLER_0_127_597
*2989 FILLER_0_127_609
*2990 FILLER_0_127_615
*2991 FILLER_0_127_617
*2992 FILLER_0_127_629
*2993 FILLER_0_127_641
*2994 FILLER_0_127_653
*2995 FILLER_0_127_665
*2996 FILLER_0_127_671
*2997 FILLER_0_127_673
*2998 FILLER_0_127_685
*2999 FILLER_0_127_69
*3000 FILLER_0_127_697
*3001 FILLER_0_127_709
*3002 FILLER_0_127_721
*3003 FILLER_0_127_727
*3004 FILLER_0_127_729
*3005 FILLER_0_127_741
*3006 FILLER_0_127_753
*3007 FILLER_0_127_765
*3008 FILLER_0_127_777
*3009 FILLER_0_127_783
*3010 FILLER_0_127_785
*3011 FILLER_0_127_797
*3012 FILLER_0_127_809
*3013 FILLER_0_127_81
*3014 FILLER_0_127_821
*3015 FILLER_0_127_93
*3016 FILLER_0_128_109
*3017 FILLER_0_128_121
*3018 FILLER_0_128_133
*3019 FILLER_0_128_139
*3020 FILLER_0_128_141
*3021 FILLER_0_128_15
*3022 FILLER_0_128_153
*3023 FILLER_0_128_165
*3024 FILLER_0_128_177
*3025 FILLER_0_128_189
*3026 FILLER_0_128_195
*3027 FILLER_0_128_197
*3028 FILLER_0_128_209
*3029 FILLER_0_128_221
*3030 FILLER_0_128_233
*3031 FILLER_0_128_245
*3032 FILLER_0_128_251
*3033 FILLER_0_128_253
*3034 FILLER_0_128_265
*3035 FILLER_0_128_27
*3036 FILLER_0_128_277
*3037 FILLER_0_128_289
*3038 FILLER_0_128_29
*3039 FILLER_0_128_3
*3040 FILLER_0_128_301
*3041 FILLER_0_128_307
*3042 FILLER_0_128_309
*3043 FILLER_0_128_321
*3044 FILLER_0_128_333
*3045 FILLER_0_128_345
*3046 FILLER_0_128_357
*3047 FILLER_0_128_363
*3048 FILLER_0_128_365
*3049 FILLER_0_128_377
*3050 FILLER_0_128_389
*3051 FILLER_0_128_401
*3052 FILLER_0_128_41
*3053 FILLER_0_128_413
*3054 FILLER_0_128_419
*3055 FILLER_0_128_421
*3056 FILLER_0_128_433
*3057 FILLER_0_128_445
*3058 FILLER_0_128_457
*3059 FILLER_0_128_469
*3060 FILLER_0_128_475
*3061 FILLER_0_128_477
*3062 FILLER_0_128_489
*3063 FILLER_0_128_501
*3064 FILLER_0_128_513
*3065 FILLER_0_128_525
*3066 FILLER_0_128_53
*3067 FILLER_0_128_531
*3068 FILLER_0_128_533
*3069 FILLER_0_128_545
*3070 FILLER_0_128_557
*3071 FILLER_0_128_569
*3072 FILLER_0_128_581
*3073 FILLER_0_128_587
*3074 FILLER_0_128_589
*3075 FILLER_0_128_601
*3076 FILLER_0_128_613
*3077 FILLER_0_128_625
*3078 FILLER_0_128_637
*3079 FILLER_0_128_643
*3080 FILLER_0_128_645
*3081 FILLER_0_128_65
*3082 FILLER_0_128_657
*3083 FILLER_0_128_669
*3084 FILLER_0_128_681
*3085 FILLER_0_128_693
*3086 FILLER_0_128_699
*3087 FILLER_0_128_701
*3088 FILLER_0_128_713
*3089 FILLER_0_128_725
*3090 FILLER_0_128_737
*3091 FILLER_0_128_749
*3092 FILLER_0_128_755
*3093 FILLER_0_128_757
*3094 FILLER_0_128_769
*3095 FILLER_0_128_77
*3096 FILLER_0_128_781
*3097 FILLER_0_128_793
*3098 FILLER_0_128_805
*3099 FILLER_0_128_811
*3100 FILLER_0_128_813
*3101 FILLER_0_128_821
*3102 FILLER_0_128_83
*3103 FILLER_0_128_85
*3104 FILLER_0_128_97
*3105 FILLER_0_129_105
*3106 FILLER_0_129_111
*3107 FILLER_0_129_113
*3108 FILLER_0_129_125
*3109 FILLER_0_129_137
*3110 FILLER_0_129_149
*3111 FILLER_0_129_15
*3112 FILLER_0_129_161
*3113 FILLER_0_129_167
*3114 FILLER_0_129_169
*3115 FILLER_0_129_181
*3116 FILLER_0_129_193
*3117 FILLER_0_129_205
*3118 FILLER_0_129_217
*3119 FILLER_0_129_223
*3120 FILLER_0_129_225
*3121 FILLER_0_129_237
*3122 FILLER_0_129_249
*3123 FILLER_0_129_261
*3124 FILLER_0_129_27
*3125 FILLER_0_129_273
*3126 FILLER_0_129_279
*3127 FILLER_0_129_281
*3128 FILLER_0_129_293
*3129 FILLER_0_129_3
*3130 FILLER_0_129_305
*3131 FILLER_0_129_317
*3132 FILLER_0_129_329
*3133 FILLER_0_129_335
*3134 FILLER_0_129_337
*3135 FILLER_0_129_349
*3136 FILLER_0_129_361
*3137 FILLER_0_129_373
*3138 FILLER_0_129_385
*3139 FILLER_0_129_39
*3140 FILLER_0_129_391
*3141 FILLER_0_129_393
*3142 FILLER_0_129_405
*3143 FILLER_0_129_417
*3144 FILLER_0_129_429
*3145 FILLER_0_129_441
*3146 FILLER_0_129_447
*3147 FILLER_0_129_449
*3148 FILLER_0_129_461
*3149 FILLER_0_129_473
*3150 FILLER_0_129_485
*3151 FILLER_0_129_497
*3152 FILLER_0_129_503
*3153 FILLER_0_129_505
*3154 FILLER_0_129_51
*3155 FILLER_0_129_517
*3156 FILLER_0_129_529
*3157 FILLER_0_129_541
*3158 FILLER_0_129_55
*3159 FILLER_0_129_553
*3160 FILLER_0_129_559
*3161 FILLER_0_129_561
*3162 FILLER_0_129_57
*3163 FILLER_0_129_573
*3164 FILLER_0_129_585
*3165 FILLER_0_129_597
*3166 FILLER_0_129_609
*3167 FILLER_0_129_615
*3168 FILLER_0_129_617
*3169 FILLER_0_129_629
*3170 FILLER_0_129_641
*3171 FILLER_0_129_653
*3172 FILLER_0_129_665
*3173 FILLER_0_129_671
*3174 FILLER_0_129_673
*3175 FILLER_0_129_685
*3176 FILLER_0_129_69
*3177 FILLER_0_129_697
*3178 FILLER_0_129_709
*3179 FILLER_0_129_721
*3180 FILLER_0_129_727
*3181 FILLER_0_129_729
*3182 FILLER_0_129_741
*3183 FILLER_0_129_753
*3184 FILLER_0_129_765
*3185 FILLER_0_129_777
*3186 FILLER_0_129_783
*3187 FILLER_0_129_785
*3188 FILLER_0_129_797
*3189 FILLER_0_129_809
*3190 FILLER_0_129_81
*3191 FILLER_0_129_821
*3192 FILLER_0_129_93
*3193 FILLER_0_12_109
*3194 FILLER_0_12_121
*3195 FILLER_0_12_133
*3196 FILLER_0_12_139
*3197 FILLER_0_12_141
*3198 FILLER_0_12_15
*3199 FILLER_0_12_153
*3200 FILLER_0_12_165
*3201 FILLER_0_12_177
*3202 FILLER_0_12_189
*3203 FILLER_0_12_195
*3204 FILLER_0_12_197
*3205 FILLER_0_12_209
*3206 FILLER_0_12_221
*3207 FILLER_0_12_233
*3208 FILLER_0_12_245
*3209 FILLER_0_12_251
*3210 FILLER_0_12_253
*3211 FILLER_0_12_265
*3212 FILLER_0_12_27
*3213 FILLER_0_12_277
*3214 FILLER_0_12_289
*3215 FILLER_0_12_29
*3216 FILLER_0_12_3
*3217 FILLER_0_12_301
*3218 FILLER_0_12_307
*3219 FILLER_0_12_309
*3220 FILLER_0_12_321
*3221 FILLER_0_12_333
*3222 FILLER_0_12_345
*3223 FILLER_0_12_357
*3224 FILLER_0_12_363
*3225 FILLER_0_12_365
*3226 FILLER_0_12_377
*3227 FILLER_0_12_389
*3228 FILLER_0_12_401
*3229 FILLER_0_12_41
*3230 FILLER_0_12_413
*3231 FILLER_0_12_419
*3232 FILLER_0_12_421
*3233 FILLER_0_12_433
*3234 FILLER_0_12_445
*3235 FILLER_0_12_457
*3236 FILLER_0_12_469
*3237 FILLER_0_12_475
*3238 FILLER_0_12_477
*3239 FILLER_0_12_489
*3240 FILLER_0_12_501
*3241 FILLER_0_12_513
*3242 FILLER_0_12_525
*3243 FILLER_0_12_53
*3244 FILLER_0_12_531
*3245 FILLER_0_12_533
*3246 FILLER_0_12_545
*3247 FILLER_0_12_557
*3248 FILLER_0_12_569
*3249 FILLER_0_12_581
*3250 FILLER_0_12_587
*3251 FILLER_0_12_589
*3252 FILLER_0_12_601
*3253 FILLER_0_12_613
*3254 FILLER_0_12_625
*3255 FILLER_0_12_637
*3256 FILLER_0_12_643
*3257 FILLER_0_12_645
*3258 FILLER_0_12_65
*3259 FILLER_0_12_657
*3260 FILLER_0_12_669
*3261 FILLER_0_12_681
*3262 FILLER_0_12_693
*3263 FILLER_0_12_699
*3264 FILLER_0_12_701
*3265 FILLER_0_12_713
*3266 FILLER_0_12_725
*3267 FILLER_0_12_737
*3268 FILLER_0_12_749
*3269 FILLER_0_12_755
*3270 FILLER_0_12_757
*3271 FILLER_0_12_769
*3272 FILLER_0_12_77
*3273 FILLER_0_12_781
*3274 FILLER_0_12_793
*3275 FILLER_0_12_805
*3276 FILLER_0_12_811
*3277 FILLER_0_12_813
*3278 FILLER_0_12_821
*3279 FILLER_0_12_83
*3280 FILLER_0_12_85
*3281 FILLER_0_12_97
*3282 FILLER_0_130_109
*3283 FILLER_0_130_121
*3284 FILLER_0_130_133
*3285 FILLER_0_130_139
*3286 FILLER_0_130_141
*3287 FILLER_0_130_15
*3288 FILLER_0_130_153
*3289 FILLER_0_130_165
*3290 FILLER_0_130_177
*3291 FILLER_0_130_189
*3292 FILLER_0_130_195
*3293 FILLER_0_130_197
*3294 FILLER_0_130_209
*3295 FILLER_0_130_221
*3296 FILLER_0_130_233
*3297 FILLER_0_130_245
*3298 FILLER_0_130_251
*3299 FILLER_0_130_253
*3300 FILLER_0_130_265
*3301 FILLER_0_130_27
*3302 FILLER_0_130_277
*3303 FILLER_0_130_289
*3304 FILLER_0_130_29
*3305 FILLER_0_130_3
*3306 FILLER_0_130_301
*3307 FILLER_0_130_307
*3308 FILLER_0_130_309
*3309 FILLER_0_130_321
*3310 FILLER_0_130_333
*3311 FILLER_0_130_345
*3312 FILLER_0_130_357
*3313 FILLER_0_130_363
*3314 FILLER_0_130_365
*3315 FILLER_0_130_377
*3316 FILLER_0_130_389
*3317 FILLER_0_130_401
*3318 FILLER_0_130_41
*3319 FILLER_0_130_413
*3320 FILLER_0_130_419
*3321 FILLER_0_130_421
*3322 FILLER_0_130_433
*3323 FILLER_0_130_445
*3324 FILLER_0_130_457
*3325 FILLER_0_130_469
*3326 FILLER_0_130_475
*3327 FILLER_0_130_477
*3328 FILLER_0_130_489
*3329 FILLER_0_130_501
*3330 FILLER_0_130_513
*3331 FILLER_0_130_525
*3332 FILLER_0_130_53
*3333 FILLER_0_130_531
*3334 FILLER_0_130_533
*3335 FILLER_0_130_545
*3336 FILLER_0_130_557
*3337 FILLER_0_130_569
*3338 FILLER_0_130_581
*3339 FILLER_0_130_587
*3340 FILLER_0_130_589
*3341 FILLER_0_130_601
*3342 FILLER_0_130_613
*3343 FILLER_0_130_625
*3344 FILLER_0_130_637
*3345 FILLER_0_130_643
*3346 FILLER_0_130_645
*3347 FILLER_0_130_65
*3348 FILLER_0_130_657
*3349 FILLER_0_130_669
*3350 FILLER_0_130_681
*3351 FILLER_0_130_693
*3352 FILLER_0_130_699
*3353 FILLER_0_130_701
*3354 FILLER_0_130_713
*3355 FILLER_0_130_725
*3356 FILLER_0_130_737
*3357 FILLER_0_130_749
*3358 FILLER_0_130_755
*3359 FILLER_0_130_757
*3360 FILLER_0_130_769
*3361 FILLER_0_130_77
*3362 FILLER_0_130_781
*3363 FILLER_0_130_793
*3364 FILLER_0_130_805
*3365 FILLER_0_130_811
*3366 FILLER_0_130_813
*3367 FILLER_0_130_821
*3368 FILLER_0_130_83
*3369 FILLER_0_130_85
*3370 FILLER_0_130_97
*3371 FILLER_0_131_105
*3372 FILLER_0_131_111
*3373 FILLER_0_131_113
*3374 FILLER_0_131_125
*3375 FILLER_0_131_137
*3376 FILLER_0_131_149
*3377 FILLER_0_131_15
*3378 FILLER_0_131_161
*3379 FILLER_0_131_167
*3380 FILLER_0_131_169
*3381 FILLER_0_131_181
*3382 FILLER_0_131_193
*3383 FILLER_0_131_205
*3384 FILLER_0_131_217
*3385 FILLER_0_131_223
*3386 FILLER_0_131_225
*3387 FILLER_0_131_237
*3388 FILLER_0_131_249
*3389 FILLER_0_131_261
*3390 FILLER_0_131_27
*3391 FILLER_0_131_273
*3392 FILLER_0_131_279
*3393 FILLER_0_131_281
*3394 FILLER_0_131_293
*3395 FILLER_0_131_3
*3396 FILLER_0_131_305
*3397 FILLER_0_131_317
*3398 FILLER_0_131_329
*3399 FILLER_0_131_335
*3400 FILLER_0_131_337
*3401 FILLER_0_131_349
*3402 FILLER_0_131_361
*3403 FILLER_0_131_373
*3404 FILLER_0_131_385
*3405 FILLER_0_131_39
*3406 FILLER_0_131_391
*3407 FILLER_0_131_393
*3408 FILLER_0_131_405
*3409 FILLER_0_131_417
*3410 FILLER_0_131_429
*3411 FILLER_0_131_441
*3412 FILLER_0_131_447
*3413 FILLER_0_131_449
*3414 FILLER_0_131_461
*3415 FILLER_0_131_473
*3416 FILLER_0_131_485
*3417 FILLER_0_131_497
*3418 FILLER_0_131_503
*3419 FILLER_0_131_505
*3420 FILLER_0_131_51
*3421 FILLER_0_131_517
*3422 FILLER_0_131_529
*3423 FILLER_0_131_541
*3424 FILLER_0_131_55
*3425 FILLER_0_131_553
*3426 FILLER_0_131_559
*3427 FILLER_0_131_561
*3428 FILLER_0_131_57
*3429 FILLER_0_131_573
*3430 FILLER_0_131_585
*3431 FILLER_0_131_597
*3432 FILLER_0_131_609
*3433 FILLER_0_131_615
*3434 FILLER_0_131_617
*3435 FILLER_0_131_629
*3436 FILLER_0_131_641
*3437 FILLER_0_131_653
*3438 FILLER_0_131_665
*3439 FILLER_0_131_671
*3440 FILLER_0_131_673
*3441 FILLER_0_131_685
*3442 FILLER_0_131_69
*3443 FILLER_0_131_697
*3444 FILLER_0_131_709
*3445 FILLER_0_131_721
*3446 FILLER_0_131_727
*3447 FILLER_0_131_729
*3448 FILLER_0_131_741
*3449 FILLER_0_131_753
*3450 FILLER_0_131_765
*3451 FILLER_0_131_777
*3452 FILLER_0_131_783
*3453 FILLER_0_131_785
*3454 FILLER_0_131_797
*3455 FILLER_0_131_809
*3456 FILLER_0_131_81
*3457 FILLER_0_131_821
*3458 FILLER_0_131_93
*3459 FILLER_0_132_109
*3460 FILLER_0_132_121
*3461 FILLER_0_132_133
*3462 FILLER_0_132_139
*3463 FILLER_0_132_141
*3464 FILLER_0_132_15
*3465 FILLER_0_132_153
*3466 FILLER_0_132_165
*3467 FILLER_0_132_177
*3468 FILLER_0_132_189
*3469 FILLER_0_132_195
*3470 FILLER_0_132_197
*3471 FILLER_0_132_209
*3472 FILLER_0_132_221
*3473 FILLER_0_132_233
*3474 FILLER_0_132_245
*3475 FILLER_0_132_251
*3476 FILLER_0_132_253
*3477 FILLER_0_132_265
*3478 FILLER_0_132_27
*3479 FILLER_0_132_277
*3480 FILLER_0_132_289
*3481 FILLER_0_132_29
*3482 FILLER_0_132_3
*3483 FILLER_0_132_301
*3484 FILLER_0_132_307
*3485 FILLER_0_132_309
*3486 FILLER_0_132_321
*3487 FILLER_0_132_333
*3488 FILLER_0_132_345
*3489 FILLER_0_132_357
*3490 FILLER_0_132_363
*3491 FILLER_0_132_365
*3492 FILLER_0_132_377
*3493 FILLER_0_132_389
*3494 FILLER_0_132_401
*3495 FILLER_0_132_41
*3496 FILLER_0_132_413
*3497 FILLER_0_132_419
*3498 FILLER_0_132_421
*3499 FILLER_0_132_433
*3500 FILLER_0_132_445
*3501 FILLER_0_132_457
*3502 FILLER_0_132_469
*3503 FILLER_0_132_475
*3504 FILLER_0_132_477
*3505 FILLER_0_132_489
*3506 FILLER_0_132_501
*3507 FILLER_0_132_513
*3508 FILLER_0_132_525
*3509 FILLER_0_132_53
*3510 FILLER_0_132_531
*3511 FILLER_0_132_533
*3512 FILLER_0_132_545
*3513 FILLER_0_132_557
*3514 FILLER_0_132_569
*3515 FILLER_0_132_581
*3516 FILLER_0_132_587
*3517 FILLER_0_132_589
*3518 FILLER_0_132_601
*3519 FILLER_0_132_613
*3520 FILLER_0_132_625
*3521 FILLER_0_132_637
*3522 FILLER_0_132_643
*3523 FILLER_0_132_645
*3524 FILLER_0_132_65
*3525 FILLER_0_132_657
*3526 FILLER_0_132_669
*3527 FILLER_0_132_681
*3528 FILLER_0_132_693
*3529 FILLER_0_132_699
*3530 FILLER_0_132_701
*3531 FILLER_0_132_713
*3532 FILLER_0_132_725
*3533 FILLER_0_132_737
*3534 FILLER_0_132_749
*3535 FILLER_0_132_755
*3536 FILLER_0_132_757
*3537 FILLER_0_132_769
*3538 FILLER_0_132_77
*3539 FILLER_0_132_781
*3540 FILLER_0_132_793
*3541 FILLER_0_132_805
*3542 FILLER_0_132_811
*3543 FILLER_0_132_813
*3544 FILLER_0_132_817
*3545 FILLER_0_132_83
*3546 FILLER_0_132_85
*3547 FILLER_0_132_97
*3548 FILLER_0_133_105
*3549 FILLER_0_133_111
*3550 FILLER_0_133_113
*3551 FILLER_0_133_125
*3552 FILLER_0_133_137
*3553 FILLER_0_133_149
*3554 FILLER_0_133_15
*3555 FILLER_0_133_161
*3556 FILLER_0_133_167
*3557 FILLER_0_133_169
*3558 FILLER_0_133_181
*3559 FILLER_0_133_193
*3560 FILLER_0_133_205
*3561 FILLER_0_133_217
*3562 FILLER_0_133_223
*3563 FILLER_0_133_225
*3564 FILLER_0_133_237
*3565 FILLER_0_133_249
*3566 FILLER_0_133_261
*3567 FILLER_0_133_27
*3568 FILLER_0_133_273
*3569 FILLER_0_133_279
*3570 FILLER_0_133_281
*3571 FILLER_0_133_293
*3572 FILLER_0_133_3
*3573 FILLER_0_133_305
*3574 FILLER_0_133_317
*3575 FILLER_0_133_329
*3576 FILLER_0_133_335
*3577 FILLER_0_133_337
*3578 FILLER_0_133_349
*3579 FILLER_0_133_361
*3580 FILLER_0_133_373
*3581 FILLER_0_133_385
*3582 FILLER_0_133_39
*3583 FILLER_0_133_391
*3584 FILLER_0_133_393
*3585 FILLER_0_133_405
*3586 FILLER_0_133_417
*3587 FILLER_0_133_429
*3588 FILLER_0_133_441
*3589 FILLER_0_133_447
*3590 FILLER_0_133_449
*3591 FILLER_0_133_461
*3592 FILLER_0_133_473
*3593 FILLER_0_133_485
*3594 FILLER_0_133_497
*3595 FILLER_0_133_503
*3596 FILLER_0_133_505
*3597 FILLER_0_133_51
*3598 FILLER_0_133_517
*3599 FILLER_0_133_529
*3600 FILLER_0_133_541
*3601 FILLER_0_133_55
*3602 FILLER_0_133_553
*3603 FILLER_0_133_559
*3604 FILLER_0_133_561
*3605 FILLER_0_133_57
*3606 FILLER_0_133_573
*3607 FILLER_0_133_585
*3608 FILLER_0_133_597
*3609 FILLER_0_133_609
*3610 FILLER_0_133_615
*3611 FILLER_0_133_617
*3612 FILLER_0_133_629
*3613 FILLER_0_133_641
*3614 FILLER_0_133_653
*3615 FILLER_0_133_665
*3616 FILLER_0_133_671
*3617 FILLER_0_133_673
*3618 FILLER_0_133_685
*3619 FILLER_0_133_69
*3620 FILLER_0_133_697
*3621 FILLER_0_133_709
*3622 FILLER_0_133_721
*3623 FILLER_0_133_727
*3624 FILLER_0_133_729
*3625 FILLER_0_133_741
*3626 FILLER_0_133_753
*3627 FILLER_0_133_765
*3628 FILLER_0_133_777
*3629 FILLER_0_133_783
*3630 FILLER_0_133_785
*3631 FILLER_0_133_797
*3632 FILLER_0_133_809
*3633 FILLER_0_133_81
*3634 FILLER_0_133_821
*3635 FILLER_0_133_93
*3636 FILLER_0_134_109
*3637 FILLER_0_134_121
*3638 FILLER_0_134_133
*3639 FILLER_0_134_139
*3640 FILLER_0_134_141
*3641 FILLER_0_134_15
*3642 FILLER_0_134_153
*3643 FILLER_0_134_165
*3644 FILLER_0_134_177
*3645 FILLER_0_134_189
*3646 FILLER_0_134_195
*3647 FILLER_0_134_197
*3648 FILLER_0_134_209
*3649 FILLER_0_134_221
*3650 FILLER_0_134_233
*3651 FILLER_0_134_245
*3652 FILLER_0_134_251
*3653 FILLER_0_134_253
*3654 FILLER_0_134_265
*3655 FILLER_0_134_27
*3656 FILLER_0_134_277
*3657 FILLER_0_134_289
*3658 FILLER_0_134_29
*3659 FILLER_0_134_3
*3660 FILLER_0_134_301
*3661 FILLER_0_134_307
*3662 FILLER_0_134_309
*3663 FILLER_0_134_321
*3664 FILLER_0_134_333
*3665 FILLER_0_134_345
*3666 FILLER_0_134_357
*3667 FILLER_0_134_363
*3668 FILLER_0_134_365
*3669 FILLER_0_134_377
*3670 FILLER_0_134_389
*3671 FILLER_0_134_401
*3672 FILLER_0_134_41
*3673 FILLER_0_134_413
*3674 FILLER_0_134_419
*3675 FILLER_0_134_421
*3676 FILLER_0_134_433
*3677 FILLER_0_134_445
*3678 FILLER_0_134_457
*3679 FILLER_0_134_469
*3680 FILLER_0_134_475
*3681 FILLER_0_134_477
*3682 FILLER_0_134_489
*3683 FILLER_0_134_501
*3684 FILLER_0_134_513
*3685 FILLER_0_134_525
*3686 FILLER_0_134_53
*3687 FILLER_0_134_531
*3688 FILLER_0_134_533
*3689 FILLER_0_134_545
*3690 FILLER_0_134_557
*3691 FILLER_0_134_569
*3692 FILLER_0_134_581
*3693 FILLER_0_134_587
*3694 FILLER_0_134_589
*3695 FILLER_0_134_601
*3696 FILLER_0_134_613
*3697 FILLER_0_134_625
*3698 FILLER_0_134_637
*3699 FILLER_0_134_643
*3700 FILLER_0_134_645
*3701 FILLER_0_134_65
*3702 FILLER_0_134_657
*3703 FILLER_0_134_669
*3704 FILLER_0_134_681
*3705 FILLER_0_134_693
*3706 FILLER_0_134_699
*3707 FILLER_0_134_701
*3708 FILLER_0_134_713
*3709 FILLER_0_134_725
*3710 FILLER_0_134_737
*3711 FILLER_0_134_749
*3712 FILLER_0_134_755
*3713 FILLER_0_134_757
*3714 FILLER_0_134_769
*3715 FILLER_0_134_77
*3716 FILLER_0_134_781
*3717 FILLER_0_134_793
*3718 FILLER_0_134_805
*3719 FILLER_0_134_811
*3720 FILLER_0_134_813
*3721 FILLER_0_134_821
*3722 FILLER_0_134_83
*3723 FILLER_0_134_85
*3724 FILLER_0_134_97
*3725 FILLER_0_135_105
*3726 FILLER_0_135_111
*3727 FILLER_0_135_113
*3728 FILLER_0_135_125
*3729 FILLER_0_135_137
*3730 FILLER_0_135_149
*3731 FILLER_0_135_15
*3732 FILLER_0_135_161
*3733 FILLER_0_135_167
*3734 FILLER_0_135_169
*3735 FILLER_0_135_181
*3736 FILLER_0_135_193
*3737 FILLER_0_135_205
*3738 FILLER_0_135_217
*3739 FILLER_0_135_223
*3740 FILLER_0_135_225
*3741 FILLER_0_135_237
*3742 FILLER_0_135_249
*3743 FILLER_0_135_261
*3744 FILLER_0_135_27
*3745 FILLER_0_135_273
*3746 FILLER_0_135_279
*3747 FILLER_0_135_281
*3748 FILLER_0_135_293
*3749 FILLER_0_135_3
*3750 FILLER_0_135_305
*3751 FILLER_0_135_317
*3752 FILLER_0_135_329
*3753 FILLER_0_135_335
*3754 FILLER_0_135_337
*3755 FILLER_0_135_349
*3756 FILLER_0_135_361
*3757 FILLER_0_135_373
*3758 FILLER_0_135_385
*3759 FILLER_0_135_39
*3760 FILLER_0_135_391
*3761 FILLER_0_135_393
*3762 FILLER_0_135_405
*3763 FILLER_0_135_417
*3764 FILLER_0_135_429
*3765 FILLER_0_135_441
*3766 FILLER_0_135_447
*3767 FILLER_0_135_449
*3768 FILLER_0_135_461
*3769 FILLER_0_135_473
*3770 FILLER_0_135_485
*3771 FILLER_0_135_497
*3772 FILLER_0_135_503
*3773 FILLER_0_135_505
*3774 FILLER_0_135_51
*3775 FILLER_0_135_517
*3776 FILLER_0_135_529
*3777 FILLER_0_135_541
*3778 FILLER_0_135_55
*3779 FILLER_0_135_553
*3780 FILLER_0_135_559
*3781 FILLER_0_135_561
*3782 FILLER_0_135_57
*3783 FILLER_0_135_573
*3784 FILLER_0_135_585
*3785 FILLER_0_135_597
*3786 FILLER_0_135_609
*3787 FILLER_0_135_615
*3788 FILLER_0_135_617
*3789 FILLER_0_135_629
*3790 FILLER_0_135_641
*3791 FILLER_0_135_653
*3792 FILLER_0_135_665
*3793 FILLER_0_135_671
*3794 FILLER_0_135_673
*3795 FILLER_0_135_685
*3796 FILLER_0_135_69
*3797 FILLER_0_135_697
*3798 FILLER_0_135_709
*3799 FILLER_0_135_721
*3800 FILLER_0_135_727
*3801 FILLER_0_135_729
*3802 FILLER_0_135_741
*3803 FILLER_0_135_753
*3804 FILLER_0_135_765
*3805 FILLER_0_135_777
*3806 FILLER_0_135_783
*3807 FILLER_0_135_785
*3808 FILLER_0_135_797
*3809 FILLER_0_135_809
*3810 FILLER_0_135_81
*3811 FILLER_0_135_821
*3812 FILLER_0_135_93
*3813 FILLER_0_136_109
*3814 FILLER_0_136_121
*3815 FILLER_0_136_133
*3816 FILLER_0_136_139
*3817 FILLER_0_136_141
*3818 FILLER_0_136_15
*3819 FILLER_0_136_153
*3820 FILLER_0_136_165
*3821 FILLER_0_136_177
*3822 FILLER_0_136_189
*3823 FILLER_0_136_195
*3824 FILLER_0_136_197
*3825 FILLER_0_136_209
*3826 FILLER_0_136_221
*3827 FILLER_0_136_233
*3828 FILLER_0_136_245
*3829 FILLER_0_136_251
*3830 FILLER_0_136_253
*3831 FILLER_0_136_265
*3832 FILLER_0_136_27
*3833 FILLER_0_136_277
*3834 FILLER_0_136_289
*3835 FILLER_0_136_29
*3836 FILLER_0_136_3
*3837 FILLER_0_136_301
*3838 FILLER_0_136_307
*3839 FILLER_0_136_309
*3840 FILLER_0_136_321
*3841 FILLER_0_136_333
*3842 FILLER_0_136_345
*3843 FILLER_0_136_357
*3844 FILLER_0_136_363
*3845 FILLER_0_136_365
*3846 FILLER_0_136_377
*3847 FILLER_0_136_389
*3848 FILLER_0_136_401
*3849 FILLER_0_136_41
*3850 FILLER_0_136_413
*3851 FILLER_0_136_419
*3852 FILLER_0_136_421
*3853 FILLER_0_136_433
*3854 FILLER_0_136_445
*3855 FILLER_0_136_457
*3856 FILLER_0_136_469
*3857 FILLER_0_136_475
*3858 FILLER_0_136_477
*3859 FILLER_0_136_489
*3860 FILLER_0_136_501
*3861 FILLER_0_136_513
*3862 FILLER_0_136_525
*3863 FILLER_0_136_53
*3864 FILLER_0_136_531
*3865 FILLER_0_136_533
*3866 FILLER_0_136_545
*3867 FILLER_0_136_557
*3868 FILLER_0_136_569
*3869 FILLER_0_136_581
*3870 FILLER_0_136_587
*3871 FILLER_0_136_589
*3872 FILLER_0_136_601
*3873 FILLER_0_136_613
*3874 FILLER_0_136_625
*3875 FILLER_0_136_637
*3876 FILLER_0_136_643
*3877 FILLER_0_136_645
*3878 FILLER_0_136_65
*3879 FILLER_0_136_657
*3880 FILLER_0_136_669
*3881 FILLER_0_136_681
*3882 FILLER_0_136_693
*3883 FILLER_0_136_699
*3884 FILLER_0_136_701
*3885 FILLER_0_136_713
*3886 FILLER_0_136_725
*3887 FILLER_0_136_737
*3888 FILLER_0_136_749
*3889 FILLER_0_136_755
*3890 FILLER_0_136_757
*3891 FILLER_0_136_769
*3892 FILLER_0_136_77
*3893 FILLER_0_136_781
*3894 FILLER_0_136_793
*3895 FILLER_0_136_805
*3896 FILLER_0_136_811
*3897 FILLER_0_136_813
*3898 FILLER_0_136_821
*3899 FILLER_0_136_83
*3900 FILLER_0_136_85
*3901 FILLER_0_136_97
*3902 FILLER_0_137_105
*3903 FILLER_0_137_111
*3904 FILLER_0_137_113
*3905 FILLER_0_137_125
*3906 FILLER_0_137_137
*3907 FILLER_0_137_149
*3908 FILLER_0_137_15
*3909 FILLER_0_137_161
*3910 FILLER_0_137_167
*3911 FILLER_0_137_169
*3912 FILLER_0_137_181
*3913 FILLER_0_137_193
*3914 FILLER_0_137_205
*3915 FILLER_0_137_217
*3916 FILLER_0_137_223
*3917 FILLER_0_137_225
*3918 FILLER_0_137_237
*3919 FILLER_0_137_249
*3920 FILLER_0_137_261
*3921 FILLER_0_137_27
*3922 FILLER_0_137_273
*3923 FILLER_0_137_279
*3924 FILLER_0_137_281
*3925 FILLER_0_137_293
*3926 FILLER_0_137_3
*3927 FILLER_0_137_305
*3928 FILLER_0_137_317
*3929 FILLER_0_137_329
*3930 FILLER_0_137_335
*3931 FILLER_0_137_337
*3932 FILLER_0_137_349
*3933 FILLER_0_137_361
*3934 FILLER_0_137_373
*3935 FILLER_0_137_385
*3936 FILLER_0_137_39
*3937 FILLER_0_137_391
*3938 FILLER_0_137_393
*3939 FILLER_0_137_405
*3940 FILLER_0_137_417
*3941 FILLER_0_137_429
*3942 FILLER_0_137_441
*3943 FILLER_0_137_447
*3944 FILLER_0_137_449
*3945 FILLER_0_137_461
*3946 FILLER_0_137_473
*3947 FILLER_0_137_485
*3948 FILLER_0_137_497
*3949 FILLER_0_137_503
*3950 FILLER_0_137_505
*3951 FILLER_0_137_51
*3952 FILLER_0_137_517
*3953 FILLER_0_137_529
*3954 FILLER_0_137_541
*3955 FILLER_0_137_55
*3956 FILLER_0_137_553
*3957 FILLER_0_137_559
*3958 FILLER_0_137_561
*3959 FILLER_0_137_57
*3960 FILLER_0_137_573
*3961 FILLER_0_137_585
*3962 FILLER_0_137_597
*3963 FILLER_0_137_609
*3964 FILLER_0_137_615
*3965 FILLER_0_137_617
*3966 FILLER_0_137_629
*3967 FILLER_0_137_641
*3968 FILLER_0_137_653
*3969 FILLER_0_137_665
*3970 FILLER_0_137_671
*3971 FILLER_0_137_673
*3972 FILLER_0_137_685
*3973 FILLER_0_137_69
*3974 FILLER_0_137_697
*3975 FILLER_0_137_709
*3976 FILLER_0_137_721
*3977 FILLER_0_137_727
*3978 FILLER_0_137_729
*3979 FILLER_0_137_741
*3980 FILLER_0_137_753
*3981 FILLER_0_137_765
*3982 FILLER_0_137_777
*3983 FILLER_0_137_783
*3984 FILLER_0_137_785
*3985 FILLER_0_137_797
*3986 FILLER_0_137_809
*3987 FILLER_0_137_81
*3988 FILLER_0_137_821
*3989 FILLER_0_137_93
*3990 FILLER_0_138_109
*3991 FILLER_0_138_113
*3992 FILLER_0_138_125
*3993 FILLER_0_138_137
*3994 FILLER_0_138_141
*3995 FILLER_0_138_153
*3996 FILLER_0_138_165
*3997 FILLER_0_138_169
*3998 FILLER_0_138_181
*3999 FILLER_0_138_193
*4000 FILLER_0_138_197
*4001 FILLER_0_138_209
*4002 FILLER_0_138_21
*4003 FILLER_0_138_221
*4004 FILLER_0_138_225
*4005 FILLER_0_138_237
*4006 FILLER_0_138_249
*4007 FILLER_0_138_253
*4008 FILLER_0_138_265
*4009 FILLER_0_138_27
*4010 FILLER_0_138_277
*4011 FILLER_0_138_281
*4012 FILLER_0_138_29
*4013 FILLER_0_138_293
*4014 FILLER_0_138_305
*4015 FILLER_0_138_309
*4016 FILLER_0_138_321
*4017 FILLER_0_138_328
*4018 FILLER_0_138_337
*4019 FILLER_0_138_349
*4020 FILLER_0_138_361
*4021 FILLER_0_138_365
*4022 FILLER_0_138_377
*4023 FILLER_0_138_389
*4024 FILLER_0_138_393
*4025 FILLER_0_138_405
*4026 FILLER_0_138_41
*4027 FILLER_0_138_417
*4028 FILLER_0_138_421
*4029 FILLER_0_138_433
*4030 FILLER_0_138_447
*4031 FILLER_0_138_449
*4032 FILLER_0_138_461
*4033 FILLER_0_138_473
*4034 FILLER_0_138_477
*4035 FILLER_0_138_489
*4036 FILLER_0_138_501
*4037 FILLER_0_138_505
*4038 FILLER_0_138_517
*4039 FILLER_0_138_529
*4040 FILLER_0_138_53
*4041 FILLER_0_138_533
*4042 FILLER_0_138_545
*4043 FILLER_0_138_557
*4044 FILLER_0_138_567
*4045 FILLER_0_138_57
*4046 FILLER_0_138_579
*4047 FILLER_0_138_587
*4048 FILLER_0_138_589
*4049 FILLER_0_138_601
*4050 FILLER_0_138_613
*4051 FILLER_0_138_617
*4052 FILLER_0_138_629
*4053 FILLER_0_138_641
*4054 FILLER_0_138_645
*4055 FILLER_0_138_657
*4056 FILLER_0_138_669
*4057 FILLER_0_138_679
*4058 FILLER_0_138_69
*4059 FILLER_0_138_691
*4060 FILLER_0_138_699
*4061 FILLER_0_138_701
*4062 FILLER_0_138_713
*4063 FILLER_0_138_725
*4064 FILLER_0_138_729
*4065 FILLER_0_138_741
*4066 FILLER_0_138_753
*4067 FILLER_0_138_757
*4068 FILLER_0_138_769
*4069 FILLER_0_138_781
*4070 FILLER_0_138_785
*4071 FILLER_0_138_797
*4072 FILLER_0_138_809
*4073 FILLER_0_138_81
*4074 FILLER_0_138_813
*4075 FILLER_0_138_821
*4076 FILLER_0_138_85
*4077 FILLER_0_138_9
*4078 FILLER_0_138_97
*4079 FILLER_0_13_105
*4080 FILLER_0_13_111
*4081 FILLER_0_13_113
*4082 FILLER_0_13_125
*4083 FILLER_0_13_137
*4084 FILLER_0_13_149
*4085 FILLER_0_13_15
*4086 FILLER_0_13_161
*4087 FILLER_0_13_167
*4088 FILLER_0_13_169
*4089 FILLER_0_13_181
*4090 FILLER_0_13_193
*4091 FILLER_0_13_205
*4092 FILLER_0_13_217
*4093 FILLER_0_13_223
*4094 FILLER_0_13_225
*4095 FILLER_0_13_237
*4096 FILLER_0_13_249
*4097 FILLER_0_13_261
*4098 FILLER_0_13_27
*4099 FILLER_0_13_273
*4100 FILLER_0_13_279
*4101 FILLER_0_13_281
*4102 FILLER_0_13_293
*4103 FILLER_0_13_3
*4104 FILLER_0_13_305
*4105 FILLER_0_13_317
*4106 FILLER_0_13_329
*4107 FILLER_0_13_335
*4108 FILLER_0_13_337
*4109 FILLER_0_13_349
*4110 FILLER_0_13_361
*4111 FILLER_0_13_373
*4112 FILLER_0_13_385
*4113 FILLER_0_13_39
*4114 FILLER_0_13_391
*4115 FILLER_0_13_393
*4116 FILLER_0_13_405
*4117 FILLER_0_13_417
*4118 FILLER_0_13_429
*4119 FILLER_0_13_441
*4120 FILLER_0_13_447
*4121 FILLER_0_13_449
*4122 FILLER_0_13_461
*4123 FILLER_0_13_473
*4124 FILLER_0_13_485
*4125 FILLER_0_13_497
*4126 FILLER_0_13_503
*4127 FILLER_0_13_505
*4128 FILLER_0_13_51
*4129 FILLER_0_13_517
*4130 FILLER_0_13_529
*4131 FILLER_0_13_541
*4132 FILLER_0_13_55
*4133 FILLER_0_13_553
*4134 FILLER_0_13_559
*4135 FILLER_0_13_561
*4136 FILLER_0_13_57
*4137 FILLER_0_13_573
*4138 FILLER_0_13_585
*4139 FILLER_0_13_597
*4140 FILLER_0_13_609
*4141 FILLER_0_13_615
*4142 FILLER_0_13_617
*4143 FILLER_0_13_629
*4144 FILLER_0_13_641
*4145 FILLER_0_13_653
*4146 FILLER_0_13_665
*4147 FILLER_0_13_671
*4148 FILLER_0_13_673
*4149 FILLER_0_13_685
*4150 FILLER_0_13_69
*4151 FILLER_0_13_697
*4152 FILLER_0_13_709
*4153 FILLER_0_13_721
*4154 FILLER_0_13_727
*4155 FILLER_0_13_729
*4156 FILLER_0_13_741
*4157 FILLER_0_13_753
*4158 FILLER_0_13_765
*4159 FILLER_0_13_777
*4160 FILLER_0_13_783
*4161 FILLER_0_13_785
*4162 FILLER_0_13_797
*4163 FILLER_0_13_809
*4164 FILLER_0_13_81
*4165 FILLER_0_13_821
*4166 FILLER_0_13_93
*4167 FILLER_0_14_109
*4168 FILLER_0_14_121
*4169 FILLER_0_14_133
*4170 FILLER_0_14_139
*4171 FILLER_0_14_141
*4172 FILLER_0_14_15
*4173 FILLER_0_14_153
*4174 FILLER_0_14_165
*4175 FILLER_0_14_177
*4176 FILLER_0_14_189
*4177 FILLER_0_14_195
*4178 FILLER_0_14_197
*4179 FILLER_0_14_209
*4180 FILLER_0_14_221
*4181 FILLER_0_14_233
*4182 FILLER_0_14_245
*4183 FILLER_0_14_251
*4184 FILLER_0_14_253
*4185 FILLER_0_14_265
*4186 FILLER_0_14_27
*4187 FILLER_0_14_277
*4188 FILLER_0_14_289
*4189 FILLER_0_14_29
*4190 FILLER_0_14_3
*4191 FILLER_0_14_301
*4192 FILLER_0_14_307
*4193 FILLER_0_14_309
*4194 FILLER_0_14_321
*4195 FILLER_0_14_333
*4196 FILLER_0_14_345
*4197 FILLER_0_14_357
*4198 FILLER_0_14_363
*4199 FILLER_0_14_365
*4200 FILLER_0_14_377
*4201 FILLER_0_14_389
*4202 FILLER_0_14_401
*4203 FILLER_0_14_41
*4204 FILLER_0_14_413
*4205 FILLER_0_14_419
*4206 FILLER_0_14_421
*4207 FILLER_0_14_433
*4208 FILLER_0_14_445
*4209 FILLER_0_14_457
*4210 FILLER_0_14_469
*4211 FILLER_0_14_475
*4212 FILLER_0_14_477
*4213 FILLER_0_14_489
*4214 FILLER_0_14_501
*4215 FILLER_0_14_513
*4216 FILLER_0_14_525
*4217 FILLER_0_14_53
*4218 FILLER_0_14_531
*4219 FILLER_0_14_533
*4220 FILLER_0_14_545
*4221 FILLER_0_14_557
*4222 FILLER_0_14_569
*4223 FILLER_0_14_581
*4224 FILLER_0_14_587
*4225 FILLER_0_14_589
*4226 FILLER_0_14_601
*4227 FILLER_0_14_613
*4228 FILLER_0_14_625
*4229 FILLER_0_14_637
*4230 FILLER_0_14_643
*4231 FILLER_0_14_645
*4232 FILLER_0_14_65
*4233 FILLER_0_14_657
*4234 FILLER_0_14_669
*4235 FILLER_0_14_681
*4236 FILLER_0_14_693
*4237 FILLER_0_14_699
*4238 FILLER_0_14_701
*4239 FILLER_0_14_713
*4240 FILLER_0_14_725
*4241 FILLER_0_14_737
*4242 FILLER_0_14_749
*4243 FILLER_0_14_755
*4244 FILLER_0_14_757
*4245 FILLER_0_14_769
*4246 FILLER_0_14_77
*4247 FILLER_0_14_781
*4248 FILLER_0_14_793
*4249 FILLER_0_14_805
*4250 FILLER_0_14_811
*4251 FILLER_0_14_813
*4252 FILLER_0_14_821
*4253 FILLER_0_14_83
*4254 FILLER_0_14_85
*4255 FILLER_0_14_97
*4256 FILLER_0_15_105
*4257 FILLER_0_15_111
*4258 FILLER_0_15_113
*4259 FILLER_0_15_125
*4260 FILLER_0_15_137
*4261 FILLER_0_15_149
*4262 FILLER_0_15_15
*4263 FILLER_0_15_161
*4264 FILLER_0_15_167
*4265 FILLER_0_15_169
*4266 FILLER_0_15_181
*4267 FILLER_0_15_193
*4268 FILLER_0_15_205
*4269 FILLER_0_15_217
*4270 FILLER_0_15_223
*4271 FILLER_0_15_225
*4272 FILLER_0_15_237
*4273 FILLER_0_15_249
*4274 FILLER_0_15_261
*4275 FILLER_0_15_27
*4276 FILLER_0_15_273
*4277 FILLER_0_15_279
*4278 FILLER_0_15_281
*4279 FILLER_0_15_293
*4280 FILLER_0_15_3
*4281 FILLER_0_15_305
*4282 FILLER_0_15_317
*4283 FILLER_0_15_329
*4284 FILLER_0_15_335
*4285 FILLER_0_15_337
*4286 FILLER_0_15_349
*4287 FILLER_0_15_361
*4288 FILLER_0_15_373
*4289 FILLER_0_15_385
*4290 FILLER_0_15_39
*4291 FILLER_0_15_391
*4292 FILLER_0_15_393
*4293 FILLER_0_15_405
*4294 FILLER_0_15_417
*4295 FILLER_0_15_429
*4296 FILLER_0_15_441
*4297 FILLER_0_15_447
*4298 FILLER_0_15_449
*4299 FILLER_0_15_461
*4300 FILLER_0_15_473
*4301 FILLER_0_15_485
*4302 FILLER_0_15_497
*4303 FILLER_0_15_503
*4304 FILLER_0_15_505
*4305 FILLER_0_15_51
*4306 FILLER_0_15_517
*4307 FILLER_0_15_529
*4308 FILLER_0_15_541
*4309 FILLER_0_15_55
*4310 FILLER_0_15_553
*4311 FILLER_0_15_559
*4312 FILLER_0_15_561
*4313 FILLER_0_15_57
*4314 FILLER_0_15_573
*4315 FILLER_0_15_585
*4316 FILLER_0_15_597
*4317 FILLER_0_15_609
*4318 FILLER_0_15_615
*4319 FILLER_0_15_617
*4320 FILLER_0_15_629
*4321 FILLER_0_15_641
*4322 FILLER_0_15_653
*4323 FILLER_0_15_665
*4324 FILLER_0_15_671
*4325 FILLER_0_15_673
*4326 FILLER_0_15_685
*4327 FILLER_0_15_69
*4328 FILLER_0_15_697
*4329 FILLER_0_15_709
*4330 FILLER_0_15_721
*4331 FILLER_0_15_727
*4332 FILLER_0_15_729
*4333 FILLER_0_15_741
*4334 FILLER_0_15_753
*4335 FILLER_0_15_765
*4336 FILLER_0_15_777
*4337 FILLER_0_15_783
*4338 FILLER_0_15_785
*4339 FILLER_0_15_797
*4340 FILLER_0_15_809
*4341 FILLER_0_15_81
*4342 FILLER_0_15_821
*4343 FILLER_0_15_93
*4344 FILLER_0_16_109
*4345 FILLER_0_16_121
*4346 FILLER_0_16_133
*4347 FILLER_0_16_139
*4348 FILLER_0_16_141
*4349 FILLER_0_16_153
*4350 FILLER_0_16_165
*4351 FILLER_0_16_177
*4352 FILLER_0_16_189
*4353 FILLER_0_16_195
*4354 FILLER_0_16_197
*4355 FILLER_0_16_209
*4356 FILLER_0_16_21
*4357 FILLER_0_16_221
*4358 FILLER_0_16_233
*4359 FILLER_0_16_245
*4360 FILLER_0_16_251
*4361 FILLER_0_16_253
*4362 FILLER_0_16_265
*4363 FILLER_0_16_27
*4364 FILLER_0_16_277
*4365 FILLER_0_16_289
*4366 FILLER_0_16_29
*4367 FILLER_0_16_301
*4368 FILLER_0_16_307
*4369 FILLER_0_16_309
*4370 FILLER_0_16_321
*4371 FILLER_0_16_333
*4372 FILLER_0_16_345
*4373 FILLER_0_16_357
*4374 FILLER_0_16_363
*4375 FILLER_0_16_365
*4376 FILLER_0_16_377
*4377 FILLER_0_16_389
*4378 FILLER_0_16_401
*4379 FILLER_0_16_41
*4380 FILLER_0_16_413
*4381 FILLER_0_16_419
*4382 FILLER_0_16_421
*4383 FILLER_0_16_433
*4384 FILLER_0_16_445
*4385 FILLER_0_16_457
*4386 FILLER_0_16_469
*4387 FILLER_0_16_475
*4388 FILLER_0_16_477
*4389 FILLER_0_16_489
*4390 FILLER_0_16_501
*4391 FILLER_0_16_513
*4392 FILLER_0_16_525
*4393 FILLER_0_16_53
*4394 FILLER_0_16_531
*4395 FILLER_0_16_533
*4396 FILLER_0_16_545
*4397 FILLER_0_16_557
*4398 FILLER_0_16_569
*4399 FILLER_0_16_581
*4400 FILLER_0_16_587
*4401 FILLER_0_16_589
*4402 FILLER_0_16_601
*4403 FILLER_0_16_613
*4404 FILLER_0_16_625
*4405 FILLER_0_16_637
*4406 FILLER_0_16_643
*4407 FILLER_0_16_645
*4408 FILLER_0_16_65
*4409 FILLER_0_16_657
*4410 FILLER_0_16_669
*4411 FILLER_0_16_681
*4412 FILLER_0_16_693
*4413 FILLER_0_16_699
*4414 FILLER_0_16_701
*4415 FILLER_0_16_713
*4416 FILLER_0_16_725
*4417 FILLER_0_16_737
*4418 FILLER_0_16_749
*4419 FILLER_0_16_755
*4420 FILLER_0_16_757
*4421 FILLER_0_16_769
*4422 FILLER_0_16_77
*4423 FILLER_0_16_781
*4424 FILLER_0_16_793
*4425 FILLER_0_16_805
*4426 FILLER_0_16_811
*4427 FILLER_0_16_813
*4428 FILLER_0_16_821
*4429 FILLER_0_16_83
*4430 FILLER_0_16_85
*4431 FILLER_0_16_9
*4432 FILLER_0_16_97
*4433 FILLER_0_17_105
*4434 FILLER_0_17_111
*4435 FILLER_0_17_113
*4436 FILLER_0_17_125
*4437 FILLER_0_17_137
*4438 FILLER_0_17_149
*4439 FILLER_0_17_15
*4440 FILLER_0_17_161
*4441 FILLER_0_17_167
*4442 FILLER_0_17_169
*4443 FILLER_0_17_181
*4444 FILLER_0_17_193
*4445 FILLER_0_17_205
*4446 FILLER_0_17_217
*4447 FILLER_0_17_223
*4448 FILLER_0_17_225
*4449 FILLER_0_17_237
*4450 FILLER_0_17_249
*4451 FILLER_0_17_261
*4452 FILLER_0_17_27
*4453 FILLER_0_17_273
*4454 FILLER_0_17_279
*4455 FILLER_0_17_281
*4456 FILLER_0_17_293
*4457 FILLER_0_17_3
*4458 FILLER_0_17_305
*4459 FILLER_0_17_317
*4460 FILLER_0_17_329
*4461 FILLER_0_17_335
*4462 FILLER_0_17_337
*4463 FILLER_0_17_349
*4464 FILLER_0_17_361
*4465 FILLER_0_17_373
*4466 FILLER_0_17_385
*4467 FILLER_0_17_39
*4468 FILLER_0_17_391
*4469 FILLER_0_17_393
*4470 FILLER_0_17_405
*4471 FILLER_0_17_417
*4472 FILLER_0_17_429
*4473 FILLER_0_17_441
*4474 FILLER_0_17_447
*4475 FILLER_0_17_449
*4476 FILLER_0_17_461
*4477 FILLER_0_17_473
*4478 FILLER_0_17_485
*4479 FILLER_0_17_497
*4480 FILLER_0_17_503
*4481 FILLER_0_17_505
*4482 FILLER_0_17_51
*4483 FILLER_0_17_517
*4484 FILLER_0_17_529
*4485 FILLER_0_17_541
*4486 FILLER_0_17_55
*4487 FILLER_0_17_553
*4488 FILLER_0_17_559
*4489 FILLER_0_17_561
*4490 FILLER_0_17_57
*4491 FILLER_0_17_573
*4492 FILLER_0_17_585
*4493 FILLER_0_17_597
*4494 FILLER_0_17_609
*4495 FILLER_0_17_615
*4496 FILLER_0_17_617
*4497 FILLER_0_17_629
*4498 FILLER_0_17_641
*4499 FILLER_0_17_653
*4500 FILLER_0_17_665
*4501 FILLER_0_17_671
*4502 FILLER_0_17_673
*4503 FILLER_0_17_685
*4504 FILLER_0_17_69
*4505 FILLER_0_17_697
*4506 FILLER_0_17_709
*4507 FILLER_0_17_721
*4508 FILLER_0_17_727
*4509 FILLER_0_17_729
*4510 FILLER_0_17_741
*4511 FILLER_0_17_753
*4512 FILLER_0_17_765
*4513 FILLER_0_17_777
*4514 FILLER_0_17_783
*4515 FILLER_0_17_785
*4516 FILLER_0_17_797
*4517 FILLER_0_17_809
*4518 FILLER_0_17_81
*4519 FILLER_0_17_821
*4520 FILLER_0_17_93
*4521 FILLER_0_18_109
*4522 FILLER_0_18_121
*4523 FILLER_0_18_133
*4524 FILLER_0_18_139
*4525 FILLER_0_18_141
*4526 FILLER_0_18_15
*4527 FILLER_0_18_153
*4528 FILLER_0_18_165
*4529 FILLER_0_18_177
*4530 FILLER_0_18_189
*4531 FILLER_0_18_195
*4532 FILLER_0_18_197
*4533 FILLER_0_18_209
*4534 FILLER_0_18_221
*4535 FILLER_0_18_233
*4536 FILLER_0_18_245
*4537 FILLER_0_18_251
*4538 FILLER_0_18_253
*4539 FILLER_0_18_265
*4540 FILLER_0_18_27
*4541 FILLER_0_18_277
*4542 FILLER_0_18_289
*4543 FILLER_0_18_29
*4544 FILLER_0_18_3
*4545 FILLER_0_18_301
*4546 FILLER_0_18_307
*4547 FILLER_0_18_309
*4548 FILLER_0_18_321
*4549 FILLER_0_18_333
*4550 FILLER_0_18_345
*4551 FILLER_0_18_357
*4552 FILLER_0_18_363
*4553 FILLER_0_18_365
*4554 FILLER_0_18_377
*4555 FILLER_0_18_389
*4556 FILLER_0_18_401
*4557 FILLER_0_18_41
*4558 FILLER_0_18_413
*4559 FILLER_0_18_419
*4560 FILLER_0_18_421
*4561 FILLER_0_18_433
*4562 FILLER_0_18_445
*4563 FILLER_0_18_457
*4564 FILLER_0_18_469
*4565 FILLER_0_18_475
*4566 FILLER_0_18_477
*4567 FILLER_0_18_489
*4568 FILLER_0_18_501
*4569 FILLER_0_18_513
*4570 FILLER_0_18_525
*4571 FILLER_0_18_53
*4572 FILLER_0_18_531
*4573 FILLER_0_18_533
*4574 FILLER_0_18_545
*4575 FILLER_0_18_557
*4576 FILLER_0_18_569
*4577 FILLER_0_18_581
*4578 FILLER_0_18_587
*4579 FILLER_0_18_589
*4580 FILLER_0_18_601
*4581 FILLER_0_18_613
*4582 FILLER_0_18_625
*4583 FILLER_0_18_637
*4584 FILLER_0_18_643
*4585 FILLER_0_18_645
*4586 FILLER_0_18_65
*4587 FILLER_0_18_657
*4588 FILLER_0_18_669
*4589 FILLER_0_18_681
*4590 FILLER_0_18_693
*4591 FILLER_0_18_699
*4592 FILLER_0_18_701
*4593 FILLER_0_18_713
*4594 FILLER_0_18_725
*4595 FILLER_0_18_737
*4596 FILLER_0_18_749
*4597 FILLER_0_18_755
*4598 FILLER_0_18_757
*4599 FILLER_0_18_769
*4600 FILLER_0_18_77
*4601 FILLER_0_18_781
*4602 FILLER_0_18_793
*4603 FILLER_0_18_805
*4604 FILLER_0_18_811
*4605 FILLER_0_18_813
*4606 FILLER_0_18_821
*4607 FILLER_0_18_83
*4608 FILLER_0_18_85
*4609 FILLER_0_18_97
*4610 FILLER_0_19_105
*4611 FILLER_0_19_111
*4612 FILLER_0_19_113
*4613 FILLER_0_19_125
*4614 FILLER_0_19_137
*4615 FILLER_0_19_149
*4616 FILLER_0_19_15
*4617 FILLER_0_19_161
*4618 FILLER_0_19_167
*4619 FILLER_0_19_169
*4620 FILLER_0_19_181
*4621 FILLER_0_19_193
*4622 FILLER_0_19_205
*4623 FILLER_0_19_217
*4624 FILLER_0_19_223
*4625 FILLER_0_19_225
*4626 FILLER_0_19_237
*4627 FILLER_0_19_249
*4628 FILLER_0_19_261
*4629 FILLER_0_19_27
*4630 FILLER_0_19_273
*4631 FILLER_0_19_279
*4632 FILLER_0_19_281
*4633 FILLER_0_19_293
*4634 FILLER_0_19_3
*4635 FILLER_0_19_305
*4636 FILLER_0_19_317
*4637 FILLER_0_19_329
*4638 FILLER_0_19_335
*4639 FILLER_0_19_337
*4640 FILLER_0_19_349
*4641 FILLER_0_19_361
*4642 FILLER_0_19_373
*4643 FILLER_0_19_385
*4644 FILLER_0_19_39
*4645 FILLER_0_19_391
*4646 FILLER_0_19_393
*4647 FILLER_0_19_405
*4648 FILLER_0_19_417
*4649 FILLER_0_19_429
*4650 FILLER_0_19_441
*4651 FILLER_0_19_447
*4652 FILLER_0_19_449
*4653 FILLER_0_19_461
*4654 FILLER_0_19_473
*4655 FILLER_0_19_485
*4656 FILLER_0_19_497
*4657 FILLER_0_19_503
*4658 FILLER_0_19_505
*4659 FILLER_0_19_51
*4660 FILLER_0_19_517
*4661 FILLER_0_19_529
*4662 FILLER_0_19_541
*4663 FILLER_0_19_55
*4664 FILLER_0_19_553
*4665 FILLER_0_19_559
*4666 FILLER_0_19_561
*4667 FILLER_0_19_57
*4668 FILLER_0_19_573
*4669 FILLER_0_19_585
*4670 FILLER_0_19_597
*4671 FILLER_0_19_609
*4672 FILLER_0_19_615
*4673 FILLER_0_19_617
*4674 FILLER_0_19_629
*4675 FILLER_0_19_641
*4676 FILLER_0_19_653
*4677 FILLER_0_19_665
*4678 FILLER_0_19_671
*4679 FILLER_0_19_673
*4680 FILLER_0_19_685
*4681 FILLER_0_19_69
*4682 FILLER_0_19_697
*4683 FILLER_0_19_709
*4684 FILLER_0_19_721
*4685 FILLER_0_19_727
*4686 FILLER_0_19_729
*4687 FILLER_0_19_741
*4688 FILLER_0_19_753
*4689 FILLER_0_19_765
*4690 FILLER_0_19_777
*4691 FILLER_0_19_783
*4692 FILLER_0_19_785
*4693 FILLER_0_19_797
*4694 FILLER_0_19_809
*4695 FILLER_0_19_81
*4696 FILLER_0_19_821
*4697 FILLER_0_19_93
*4698 FILLER_0_1_105
*4699 FILLER_0_1_111
*4700 FILLER_0_1_113
*4701 FILLER_0_1_125
*4702 FILLER_0_1_137
*4703 FILLER_0_1_149
*4704 FILLER_0_1_15
*4705 FILLER_0_1_161
*4706 FILLER_0_1_167
*4707 FILLER_0_1_169
*4708 FILLER_0_1_181
*4709 FILLER_0_1_193
*4710 FILLER_0_1_205
*4711 FILLER_0_1_217
*4712 FILLER_0_1_223
*4713 FILLER_0_1_225
*4714 FILLER_0_1_237
*4715 FILLER_0_1_249
*4716 FILLER_0_1_261
*4717 FILLER_0_1_27
*4718 FILLER_0_1_273
*4719 FILLER_0_1_279
*4720 FILLER_0_1_281
*4721 FILLER_0_1_293
*4722 FILLER_0_1_3
*4723 FILLER_0_1_305
*4724 FILLER_0_1_317
*4725 FILLER_0_1_329
*4726 FILLER_0_1_335
*4727 FILLER_0_1_337
*4728 FILLER_0_1_349
*4729 FILLER_0_1_361
*4730 FILLER_0_1_373
*4731 FILLER_0_1_385
*4732 FILLER_0_1_39
*4733 FILLER_0_1_391
*4734 FILLER_0_1_393
*4735 FILLER_0_1_405
*4736 FILLER_0_1_417
*4737 FILLER_0_1_429
*4738 FILLER_0_1_441
*4739 FILLER_0_1_447
*4740 FILLER_0_1_449
*4741 FILLER_0_1_461
*4742 FILLER_0_1_473
*4743 FILLER_0_1_485
*4744 FILLER_0_1_497
*4745 FILLER_0_1_503
*4746 FILLER_0_1_505
*4747 FILLER_0_1_51
*4748 FILLER_0_1_517
*4749 FILLER_0_1_529
*4750 FILLER_0_1_541
*4751 FILLER_0_1_55
*4752 FILLER_0_1_553
*4753 FILLER_0_1_559
*4754 FILLER_0_1_561
*4755 FILLER_0_1_57
*4756 FILLER_0_1_573
*4757 FILLER_0_1_585
*4758 FILLER_0_1_597
*4759 FILLER_0_1_609
*4760 FILLER_0_1_615
*4761 FILLER_0_1_617
*4762 FILLER_0_1_629
*4763 FILLER_0_1_641
*4764 FILLER_0_1_653
*4765 FILLER_0_1_665
*4766 FILLER_0_1_671
*4767 FILLER_0_1_673
*4768 FILLER_0_1_685
*4769 FILLER_0_1_69
*4770 FILLER_0_1_697
*4771 FILLER_0_1_709
*4772 FILLER_0_1_721
*4773 FILLER_0_1_727
*4774 FILLER_0_1_729
*4775 FILLER_0_1_741
*4776 FILLER_0_1_753
*4777 FILLER_0_1_765
*4778 FILLER_0_1_777
*4779 FILLER_0_1_783
*4780 FILLER_0_1_785
*4781 FILLER_0_1_797
*4782 FILLER_0_1_809
*4783 FILLER_0_1_81
*4784 FILLER_0_1_821
*4785 FILLER_0_1_93
*4786 FILLER_0_20_109
*4787 FILLER_0_20_121
*4788 FILLER_0_20_133
*4789 FILLER_0_20_139
*4790 FILLER_0_20_141
*4791 FILLER_0_20_15
*4792 FILLER_0_20_153
*4793 FILLER_0_20_165
*4794 FILLER_0_20_177
*4795 FILLER_0_20_189
*4796 FILLER_0_20_195
*4797 FILLER_0_20_197
*4798 FILLER_0_20_209
*4799 FILLER_0_20_221
*4800 FILLER_0_20_233
*4801 FILLER_0_20_245
*4802 FILLER_0_20_251
*4803 FILLER_0_20_253
*4804 FILLER_0_20_265
*4805 FILLER_0_20_27
*4806 FILLER_0_20_277
*4807 FILLER_0_20_289
*4808 FILLER_0_20_29
*4809 FILLER_0_20_3
*4810 FILLER_0_20_301
*4811 FILLER_0_20_307
*4812 FILLER_0_20_309
*4813 FILLER_0_20_321
*4814 FILLER_0_20_333
*4815 FILLER_0_20_345
*4816 FILLER_0_20_357
*4817 FILLER_0_20_363
*4818 FILLER_0_20_365
*4819 FILLER_0_20_377
*4820 FILLER_0_20_389
*4821 FILLER_0_20_401
*4822 FILLER_0_20_41
*4823 FILLER_0_20_413
*4824 FILLER_0_20_419
*4825 FILLER_0_20_421
*4826 FILLER_0_20_433
*4827 FILLER_0_20_445
*4828 FILLER_0_20_457
*4829 FILLER_0_20_469
*4830 FILLER_0_20_475
*4831 FILLER_0_20_477
*4832 FILLER_0_20_489
*4833 FILLER_0_20_501
*4834 FILLER_0_20_513
*4835 FILLER_0_20_525
*4836 FILLER_0_20_53
*4837 FILLER_0_20_531
*4838 FILLER_0_20_533
*4839 FILLER_0_20_545
*4840 FILLER_0_20_557
*4841 FILLER_0_20_569
*4842 FILLER_0_20_581
*4843 FILLER_0_20_587
*4844 FILLER_0_20_589
*4845 FILLER_0_20_601
*4846 FILLER_0_20_613
*4847 FILLER_0_20_625
*4848 FILLER_0_20_637
*4849 FILLER_0_20_643
*4850 FILLER_0_20_645
*4851 FILLER_0_20_65
*4852 FILLER_0_20_657
*4853 FILLER_0_20_669
*4854 FILLER_0_20_681
*4855 FILLER_0_20_693
*4856 FILLER_0_20_699
*4857 FILLER_0_20_701
*4858 FILLER_0_20_713
*4859 FILLER_0_20_725
*4860 FILLER_0_20_737
*4861 FILLER_0_20_749
*4862 FILLER_0_20_755
*4863 FILLER_0_20_757
*4864 FILLER_0_20_769
*4865 FILLER_0_20_77
*4866 FILLER_0_20_781
*4867 FILLER_0_20_793
*4868 FILLER_0_20_805
*4869 FILLER_0_20_811
*4870 FILLER_0_20_813
*4871 FILLER_0_20_821
*4872 FILLER_0_20_83
*4873 FILLER_0_20_85
*4874 FILLER_0_20_97
*4875 FILLER_0_21_105
*4876 FILLER_0_21_111
*4877 FILLER_0_21_113
*4878 FILLER_0_21_125
*4879 FILLER_0_21_137
*4880 FILLER_0_21_149
*4881 FILLER_0_21_15
*4882 FILLER_0_21_161
*4883 FILLER_0_21_167
*4884 FILLER_0_21_169
*4885 FILLER_0_21_181
*4886 FILLER_0_21_193
*4887 FILLER_0_21_205
*4888 FILLER_0_21_217
*4889 FILLER_0_21_223
*4890 FILLER_0_21_225
*4891 FILLER_0_21_237
*4892 FILLER_0_21_249
*4893 FILLER_0_21_261
*4894 FILLER_0_21_27
*4895 FILLER_0_21_273
*4896 FILLER_0_21_279
*4897 FILLER_0_21_281
*4898 FILLER_0_21_293
*4899 FILLER_0_21_3
*4900 FILLER_0_21_305
*4901 FILLER_0_21_317
*4902 FILLER_0_21_329
*4903 FILLER_0_21_335
*4904 FILLER_0_21_337
*4905 FILLER_0_21_349
*4906 FILLER_0_21_361
*4907 FILLER_0_21_373
*4908 FILLER_0_21_385
*4909 FILLER_0_21_39
*4910 FILLER_0_21_391
*4911 FILLER_0_21_393
*4912 FILLER_0_21_405
*4913 FILLER_0_21_417
*4914 FILLER_0_21_429
*4915 FILLER_0_21_441
*4916 FILLER_0_21_447
*4917 FILLER_0_21_449
*4918 FILLER_0_21_461
*4919 FILLER_0_21_473
*4920 FILLER_0_21_485
*4921 FILLER_0_21_497
*4922 FILLER_0_21_503
*4923 FILLER_0_21_505
*4924 FILLER_0_21_51
*4925 FILLER_0_21_517
*4926 FILLER_0_21_529
*4927 FILLER_0_21_541
*4928 FILLER_0_21_55
*4929 FILLER_0_21_553
*4930 FILLER_0_21_559
*4931 FILLER_0_21_561
*4932 FILLER_0_21_57
*4933 FILLER_0_21_573
*4934 FILLER_0_21_585
*4935 FILLER_0_21_597
*4936 FILLER_0_21_609
*4937 FILLER_0_21_615
*4938 FILLER_0_21_617
*4939 FILLER_0_21_629
*4940 FILLER_0_21_641
*4941 FILLER_0_21_653
*4942 FILLER_0_21_665
*4943 FILLER_0_21_671
*4944 FILLER_0_21_673
*4945 FILLER_0_21_685
*4946 FILLER_0_21_69
*4947 FILLER_0_21_697
*4948 FILLER_0_21_709
*4949 FILLER_0_21_721
*4950 FILLER_0_21_727
*4951 FILLER_0_21_729
*4952 FILLER_0_21_741
*4953 FILLER_0_21_753
*4954 FILLER_0_21_765
*4955 FILLER_0_21_777
*4956 FILLER_0_21_783
*4957 FILLER_0_21_785
*4958 FILLER_0_21_797
*4959 FILLER_0_21_809
*4960 FILLER_0_21_81
*4961 FILLER_0_21_821
*4962 FILLER_0_21_93
*4963 FILLER_0_22_109
*4964 FILLER_0_22_121
*4965 FILLER_0_22_133
*4966 FILLER_0_22_139
*4967 FILLER_0_22_141
*4968 FILLER_0_22_15
*4969 FILLER_0_22_153
*4970 FILLER_0_22_165
*4971 FILLER_0_22_177
*4972 FILLER_0_22_189
*4973 FILLER_0_22_195
*4974 FILLER_0_22_197
*4975 FILLER_0_22_209
*4976 FILLER_0_22_221
*4977 FILLER_0_22_233
*4978 FILLER_0_22_245
*4979 FILLER_0_22_251
*4980 FILLER_0_22_253
*4981 FILLER_0_22_265
*4982 FILLER_0_22_27
*4983 FILLER_0_22_277
*4984 FILLER_0_22_289
*4985 FILLER_0_22_29
*4986 FILLER_0_22_3
*4987 FILLER_0_22_301
*4988 FILLER_0_22_307
*4989 FILLER_0_22_309
*4990 FILLER_0_22_321
*4991 FILLER_0_22_333
*4992 FILLER_0_22_345
*4993 FILLER_0_22_357
*4994 FILLER_0_22_363
*4995 FILLER_0_22_365
*4996 FILLER_0_22_377
*4997 FILLER_0_22_389
*4998 FILLER_0_22_401
*4999 FILLER_0_22_41
*5000 FILLER_0_22_413
*5001 FILLER_0_22_419
*5002 FILLER_0_22_421
*5003 FILLER_0_22_433
*5004 FILLER_0_22_445
*5005 FILLER_0_22_457
*5006 FILLER_0_22_469
*5007 FILLER_0_22_475
*5008 FILLER_0_22_477
*5009 FILLER_0_22_489
*5010 FILLER_0_22_501
*5011 FILLER_0_22_513
*5012 FILLER_0_22_525
*5013 FILLER_0_22_53
*5014 FILLER_0_22_531
*5015 FILLER_0_22_533
*5016 FILLER_0_22_545
*5017 FILLER_0_22_557
*5018 FILLER_0_22_569
*5019 FILLER_0_22_581
*5020 FILLER_0_22_587
*5021 FILLER_0_22_589
*5022 FILLER_0_22_601
*5023 FILLER_0_22_613
*5024 FILLER_0_22_625
*5025 FILLER_0_22_637
*5026 FILLER_0_22_643
*5027 FILLER_0_22_645
*5028 FILLER_0_22_65
*5029 FILLER_0_22_657
*5030 FILLER_0_22_669
*5031 FILLER_0_22_681
*5032 FILLER_0_22_693
*5033 FILLER_0_22_699
*5034 FILLER_0_22_701
*5035 FILLER_0_22_713
*5036 FILLER_0_22_725
*5037 FILLER_0_22_737
*5038 FILLER_0_22_749
*5039 FILLER_0_22_755
*5040 FILLER_0_22_757
*5041 FILLER_0_22_769
*5042 FILLER_0_22_77
*5043 FILLER_0_22_781
*5044 FILLER_0_22_793
*5045 FILLER_0_22_805
*5046 FILLER_0_22_811
*5047 FILLER_0_22_813
*5048 FILLER_0_22_821
*5049 FILLER_0_22_83
*5050 FILLER_0_22_85
*5051 FILLER_0_22_97
*5052 FILLER_0_23_105
*5053 FILLER_0_23_111
*5054 FILLER_0_23_113
*5055 FILLER_0_23_125
*5056 FILLER_0_23_137
*5057 FILLER_0_23_149
*5058 FILLER_0_23_15
*5059 FILLER_0_23_161
*5060 FILLER_0_23_167
*5061 FILLER_0_23_169
*5062 FILLER_0_23_181
*5063 FILLER_0_23_193
*5064 FILLER_0_23_205
*5065 FILLER_0_23_217
*5066 FILLER_0_23_223
*5067 FILLER_0_23_225
*5068 FILLER_0_23_237
*5069 FILLER_0_23_249
*5070 FILLER_0_23_261
*5071 FILLER_0_23_27
*5072 FILLER_0_23_273
*5073 FILLER_0_23_279
*5074 FILLER_0_23_281
*5075 FILLER_0_23_293
*5076 FILLER_0_23_3
*5077 FILLER_0_23_305
*5078 FILLER_0_23_317
*5079 FILLER_0_23_329
*5080 FILLER_0_23_335
*5081 FILLER_0_23_337
*5082 FILLER_0_23_349
*5083 FILLER_0_23_361
*5084 FILLER_0_23_373
*5085 FILLER_0_23_385
*5086 FILLER_0_23_39
*5087 FILLER_0_23_391
*5088 FILLER_0_23_393
*5089 FILLER_0_23_405
*5090 FILLER_0_23_417
*5091 FILLER_0_23_429
*5092 FILLER_0_23_441
*5093 FILLER_0_23_447
*5094 FILLER_0_23_449
*5095 FILLER_0_23_461
*5096 FILLER_0_23_473
*5097 FILLER_0_23_485
*5098 FILLER_0_23_497
*5099 FILLER_0_23_503
*5100 FILLER_0_23_505
*5101 FILLER_0_23_51
*5102 FILLER_0_23_517
*5103 FILLER_0_23_529
*5104 FILLER_0_23_541
*5105 FILLER_0_23_55
*5106 FILLER_0_23_553
*5107 FILLER_0_23_559
*5108 FILLER_0_23_561
*5109 FILLER_0_23_57
*5110 FILLER_0_23_573
*5111 FILLER_0_23_585
*5112 FILLER_0_23_597
*5113 FILLER_0_23_609
*5114 FILLER_0_23_615
*5115 FILLER_0_23_617
*5116 FILLER_0_23_629
*5117 FILLER_0_23_641
*5118 FILLER_0_23_653
*5119 FILLER_0_23_665
*5120 FILLER_0_23_671
*5121 FILLER_0_23_673
*5122 FILLER_0_23_685
*5123 FILLER_0_23_69
*5124 FILLER_0_23_697
*5125 FILLER_0_23_709
*5126 FILLER_0_23_721
*5127 FILLER_0_23_727
*5128 FILLER_0_23_729
*5129 FILLER_0_23_741
*5130 FILLER_0_23_753
*5131 FILLER_0_23_765
*5132 FILLER_0_23_777
*5133 FILLER_0_23_783
*5134 FILLER_0_23_785
*5135 FILLER_0_23_797
*5136 FILLER_0_23_809
*5137 FILLER_0_23_81
*5138 FILLER_0_23_821
*5139 FILLER_0_23_93
*5140 FILLER_0_24_109
*5141 FILLER_0_24_121
*5142 FILLER_0_24_133
*5143 FILLER_0_24_139
*5144 FILLER_0_24_141
*5145 FILLER_0_24_15
*5146 FILLER_0_24_153
*5147 FILLER_0_24_165
*5148 FILLER_0_24_177
*5149 FILLER_0_24_189
*5150 FILLER_0_24_195
*5151 FILLER_0_24_197
*5152 FILLER_0_24_209
*5153 FILLER_0_24_221
*5154 FILLER_0_24_233
*5155 FILLER_0_24_245
*5156 FILLER_0_24_251
*5157 FILLER_0_24_253
*5158 FILLER_0_24_265
*5159 FILLER_0_24_27
*5160 FILLER_0_24_277
*5161 FILLER_0_24_289
*5162 FILLER_0_24_29
*5163 FILLER_0_24_3
*5164 FILLER_0_24_301
*5165 FILLER_0_24_307
*5166 FILLER_0_24_309
*5167 FILLER_0_24_321
*5168 FILLER_0_24_333
*5169 FILLER_0_24_345
*5170 FILLER_0_24_357
*5171 FILLER_0_24_363
*5172 FILLER_0_24_365
*5173 FILLER_0_24_377
*5174 FILLER_0_24_389
*5175 FILLER_0_24_401
*5176 FILLER_0_24_41
*5177 FILLER_0_24_413
*5178 FILLER_0_24_419
*5179 FILLER_0_24_421
*5180 FILLER_0_24_433
*5181 FILLER_0_24_445
*5182 FILLER_0_24_457
*5183 FILLER_0_24_469
*5184 FILLER_0_24_475
*5185 FILLER_0_24_477
*5186 FILLER_0_24_489
*5187 FILLER_0_24_501
*5188 FILLER_0_24_513
*5189 FILLER_0_24_525
*5190 FILLER_0_24_53
*5191 FILLER_0_24_531
*5192 FILLER_0_24_533
*5193 FILLER_0_24_545
*5194 FILLER_0_24_557
*5195 FILLER_0_24_569
*5196 FILLER_0_24_581
*5197 FILLER_0_24_587
*5198 FILLER_0_24_589
*5199 FILLER_0_24_601
*5200 FILLER_0_24_613
*5201 FILLER_0_24_625
*5202 FILLER_0_24_637
*5203 FILLER_0_24_643
*5204 FILLER_0_24_645
*5205 FILLER_0_24_65
*5206 FILLER_0_24_657
*5207 FILLER_0_24_669
*5208 FILLER_0_24_681
*5209 FILLER_0_24_693
*5210 FILLER_0_24_699
*5211 FILLER_0_24_701
*5212 FILLER_0_24_713
*5213 FILLER_0_24_725
*5214 FILLER_0_24_737
*5215 FILLER_0_24_749
*5216 FILLER_0_24_755
*5217 FILLER_0_24_757
*5218 FILLER_0_24_769
*5219 FILLER_0_24_77
*5220 FILLER_0_24_781
*5221 FILLER_0_24_793
*5222 FILLER_0_24_805
*5223 FILLER_0_24_811
*5224 FILLER_0_24_813
*5225 FILLER_0_24_821
*5226 FILLER_0_24_83
*5227 FILLER_0_24_85
*5228 FILLER_0_24_97
*5229 FILLER_0_25_105
*5230 FILLER_0_25_111
*5231 FILLER_0_25_113
*5232 FILLER_0_25_125
*5233 FILLER_0_25_137
*5234 FILLER_0_25_149
*5235 FILLER_0_25_15
*5236 FILLER_0_25_161
*5237 FILLER_0_25_167
*5238 FILLER_0_25_169
*5239 FILLER_0_25_181
*5240 FILLER_0_25_193
*5241 FILLER_0_25_205
*5242 FILLER_0_25_217
*5243 FILLER_0_25_223
*5244 FILLER_0_25_225
*5245 FILLER_0_25_237
*5246 FILLER_0_25_249
*5247 FILLER_0_25_261
*5248 FILLER_0_25_27
*5249 FILLER_0_25_273
*5250 FILLER_0_25_279
*5251 FILLER_0_25_281
*5252 FILLER_0_25_293
*5253 FILLER_0_25_3
*5254 FILLER_0_25_305
*5255 FILLER_0_25_317
*5256 FILLER_0_25_329
*5257 FILLER_0_25_335
*5258 FILLER_0_25_337
*5259 FILLER_0_25_349
*5260 FILLER_0_25_361
*5261 FILLER_0_25_373
*5262 FILLER_0_25_385
*5263 FILLER_0_25_39
*5264 FILLER_0_25_391
*5265 FILLER_0_25_393
*5266 FILLER_0_25_405
*5267 FILLER_0_25_417
*5268 FILLER_0_25_429
*5269 FILLER_0_25_441
*5270 FILLER_0_25_447
*5271 FILLER_0_25_449
*5272 FILLER_0_25_461
*5273 FILLER_0_25_473
*5274 FILLER_0_25_485
*5275 FILLER_0_25_497
*5276 FILLER_0_25_503
*5277 FILLER_0_25_505
*5278 FILLER_0_25_51
*5279 FILLER_0_25_517
*5280 FILLER_0_25_529
*5281 FILLER_0_25_541
*5282 FILLER_0_25_55
*5283 FILLER_0_25_553
*5284 FILLER_0_25_559
*5285 FILLER_0_25_561
*5286 FILLER_0_25_57
*5287 FILLER_0_25_573
*5288 FILLER_0_25_585
*5289 FILLER_0_25_597
*5290 FILLER_0_25_609
*5291 FILLER_0_25_615
*5292 FILLER_0_25_617
*5293 FILLER_0_25_629
*5294 FILLER_0_25_641
*5295 FILLER_0_25_653
*5296 FILLER_0_25_665
*5297 FILLER_0_25_671
*5298 FILLER_0_25_673
*5299 FILLER_0_25_685
*5300 FILLER_0_25_69
*5301 FILLER_0_25_697
*5302 FILLER_0_25_709
*5303 FILLER_0_25_721
*5304 FILLER_0_25_727
*5305 FILLER_0_25_729
*5306 FILLER_0_25_741
*5307 FILLER_0_25_753
*5308 FILLER_0_25_765
*5309 FILLER_0_25_777
*5310 FILLER_0_25_783
*5311 FILLER_0_25_785
*5312 FILLER_0_25_797
*5313 FILLER_0_25_809
*5314 FILLER_0_25_81
*5315 FILLER_0_25_821
*5316 FILLER_0_25_93
*5317 FILLER_0_26_109
*5318 FILLER_0_26_121
*5319 FILLER_0_26_133
*5320 FILLER_0_26_139
*5321 FILLER_0_26_141
*5322 FILLER_0_26_15
*5323 FILLER_0_26_153
*5324 FILLER_0_26_165
*5325 FILLER_0_26_177
*5326 FILLER_0_26_189
*5327 FILLER_0_26_195
*5328 FILLER_0_26_197
*5329 FILLER_0_26_209
*5330 FILLER_0_26_221
*5331 FILLER_0_26_233
*5332 FILLER_0_26_245
*5333 FILLER_0_26_251
*5334 FILLER_0_26_253
*5335 FILLER_0_26_265
*5336 FILLER_0_26_27
*5337 FILLER_0_26_277
*5338 FILLER_0_26_289
*5339 FILLER_0_26_29
*5340 FILLER_0_26_3
*5341 FILLER_0_26_301
*5342 FILLER_0_26_307
*5343 FILLER_0_26_309
*5344 FILLER_0_26_321
*5345 FILLER_0_26_333
*5346 FILLER_0_26_345
*5347 FILLER_0_26_357
*5348 FILLER_0_26_363
*5349 FILLER_0_26_365
*5350 FILLER_0_26_377
*5351 FILLER_0_26_389
*5352 FILLER_0_26_401
*5353 FILLER_0_26_41
*5354 FILLER_0_26_413
*5355 FILLER_0_26_419
*5356 FILLER_0_26_421
*5357 FILLER_0_26_433
*5358 FILLER_0_26_445
*5359 FILLER_0_26_457
*5360 FILLER_0_26_469
*5361 FILLER_0_26_475
*5362 FILLER_0_26_477
*5363 FILLER_0_26_489
*5364 FILLER_0_26_501
*5365 FILLER_0_26_513
*5366 FILLER_0_26_525
*5367 FILLER_0_26_53
*5368 FILLER_0_26_531
*5369 FILLER_0_26_533
*5370 FILLER_0_26_545
*5371 FILLER_0_26_557
*5372 FILLER_0_26_569
*5373 FILLER_0_26_581
*5374 FILLER_0_26_587
*5375 FILLER_0_26_589
*5376 FILLER_0_26_601
*5377 FILLER_0_26_613
*5378 FILLER_0_26_625
*5379 FILLER_0_26_637
*5380 FILLER_0_26_643
*5381 FILLER_0_26_645
*5382 FILLER_0_26_65
*5383 FILLER_0_26_657
*5384 FILLER_0_26_669
*5385 FILLER_0_26_681
*5386 FILLER_0_26_693
*5387 FILLER_0_26_699
*5388 FILLER_0_26_701
*5389 FILLER_0_26_713
*5390 FILLER_0_26_725
*5391 FILLER_0_26_737
*5392 FILLER_0_26_749
*5393 FILLER_0_26_755
*5394 FILLER_0_26_757
*5395 FILLER_0_26_769
*5396 FILLER_0_26_77
*5397 FILLER_0_26_781
*5398 FILLER_0_26_793
*5399 FILLER_0_26_805
*5400 FILLER_0_26_811
*5401 FILLER_0_26_813
*5402 FILLER_0_26_821
*5403 FILLER_0_26_83
*5404 FILLER_0_26_85
*5405 FILLER_0_26_97
*5406 FILLER_0_27_105
*5407 FILLER_0_27_111
*5408 FILLER_0_27_113
*5409 FILLER_0_27_125
*5410 FILLER_0_27_137
*5411 FILLER_0_27_149
*5412 FILLER_0_27_15
*5413 FILLER_0_27_161
*5414 FILLER_0_27_167
*5415 FILLER_0_27_169
*5416 FILLER_0_27_181
*5417 FILLER_0_27_193
*5418 FILLER_0_27_205
*5419 FILLER_0_27_217
*5420 FILLER_0_27_223
*5421 FILLER_0_27_225
*5422 FILLER_0_27_237
*5423 FILLER_0_27_249
*5424 FILLER_0_27_261
*5425 FILLER_0_27_27
*5426 FILLER_0_27_273
*5427 FILLER_0_27_279
*5428 FILLER_0_27_281
*5429 FILLER_0_27_293
*5430 FILLER_0_27_3
*5431 FILLER_0_27_305
*5432 FILLER_0_27_317
*5433 FILLER_0_27_329
*5434 FILLER_0_27_335
*5435 FILLER_0_27_337
*5436 FILLER_0_27_349
*5437 FILLER_0_27_361
*5438 FILLER_0_27_373
*5439 FILLER_0_27_385
*5440 FILLER_0_27_39
*5441 FILLER_0_27_391
*5442 FILLER_0_27_393
*5443 FILLER_0_27_405
*5444 FILLER_0_27_417
*5445 FILLER_0_27_429
*5446 FILLER_0_27_441
*5447 FILLER_0_27_447
*5448 FILLER_0_27_449
*5449 FILLER_0_27_461
*5450 FILLER_0_27_473
*5451 FILLER_0_27_485
*5452 FILLER_0_27_497
*5453 FILLER_0_27_503
*5454 FILLER_0_27_505
*5455 FILLER_0_27_51
*5456 FILLER_0_27_517
*5457 FILLER_0_27_529
*5458 FILLER_0_27_541
*5459 FILLER_0_27_55
*5460 FILLER_0_27_553
*5461 FILLER_0_27_559
*5462 FILLER_0_27_561
*5463 FILLER_0_27_57
*5464 FILLER_0_27_573
*5465 FILLER_0_27_585
*5466 FILLER_0_27_597
*5467 FILLER_0_27_609
*5468 FILLER_0_27_615
*5469 FILLER_0_27_617
*5470 FILLER_0_27_629
*5471 FILLER_0_27_641
*5472 FILLER_0_27_653
*5473 FILLER_0_27_665
*5474 FILLER_0_27_671
*5475 FILLER_0_27_673
*5476 FILLER_0_27_685
*5477 FILLER_0_27_69
*5478 FILLER_0_27_697
*5479 FILLER_0_27_709
*5480 FILLER_0_27_721
*5481 FILLER_0_27_727
*5482 FILLER_0_27_729
*5483 FILLER_0_27_741
*5484 FILLER_0_27_753
*5485 FILLER_0_27_765
*5486 FILLER_0_27_777
*5487 FILLER_0_27_783
*5488 FILLER_0_27_785
*5489 FILLER_0_27_797
*5490 FILLER_0_27_809
*5491 FILLER_0_27_81
*5492 FILLER_0_27_817
*5493 FILLER_0_27_93
*5494 FILLER_0_28_109
*5495 FILLER_0_28_121
*5496 FILLER_0_28_133
*5497 FILLER_0_28_139
*5498 FILLER_0_28_141
*5499 FILLER_0_28_15
*5500 FILLER_0_28_153
*5501 FILLER_0_28_165
*5502 FILLER_0_28_177
*5503 FILLER_0_28_189
*5504 FILLER_0_28_195
*5505 FILLER_0_28_197
*5506 FILLER_0_28_209
*5507 FILLER_0_28_221
*5508 FILLER_0_28_233
*5509 FILLER_0_28_245
*5510 FILLER_0_28_251
*5511 FILLER_0_28_253
*5512 FILLER_0_28_265
*5513 FILLER_0_28_27
*5514 FILLER_0_28_277
*5515 FILLER_0_28_289
*5516 FILLER_0_28_29
*5517 FILLER_0_28_3
*5518 FILLER_0_28_301
*5519 FILLER_0_28_307
*5520 FILLER_0_28_309
*5521 FILLER_0_28_321
*5522 FILLER_0_28_333
*5523 FILLER_0_28_345
*5524 FILLER_0_28_357
*5525 FILLER_0_28_363
*5526 FILLER_0_28_365
*5527 FILLER_0_28_377
*5528 FILLER_0_28_389
*5529 FILLER_0_28_401
*5530 FILLER_0_28_41
*5531 FILLER_0_28_413
*5532 FILLER_0_28_419
*5533 FILLER_0_28_421
*5534 FILLER_0_28_433
*5535 FILLER_0_28_445
*5536 FILLER_0_28_457
*5537 FILLER_0_28_469
*5538 FILLER_0_28_475
*5539 FILLER_0_28_477
*5540 FILLER_0_28_489
*5541 FILLER_0_28_501
*5542 FILLER_0_28_513
*5543 FILLER_0_28_525
*5544 FILLER_0_28_53
*5545 FILLER_0_28_531
*5546 FILLER_0_28_533
*5547 FILLER_0_28_545
*5548 FILLER_0_28_557
*5549 FILLER_0_28_569
*5550 FILLER_0_28_581
*5551 FILLER_0_28_587
*5552 FILLER_0_28_589
*5553 FILLER_0_28_601
*5554 FILLER_0_28_613
*5555 FILLER_0_28_625
*5556 FILLER_0_28_637
*5557 FILLER_0_28_643
*5558 FILLER_0_28_645
*5559 FILLER_0_28_65
*5560 FILLER_0_28_657
*5561 FILLER_0_28_669
*5562 FILLER_0_28_681
*5563 FILLER_0_28_693
*5564 FILLER_0_28_699
*5565 FILLER_0_28_701
*5566 FILLER_0_28_713
*5567 FILLER_0_28_725
*5568 FILLER_0_28_737
*5569 FILLER_0_28_749
*5570 FILLER_0_28_755
*5571 FILLER_0_28_757
*5572 FILLER_0_28_769
*5573 FILLER_0_28_77
*5574 FILLER_0_28_781
*5575 FILLER_0_28_793
*5576 FILLER_0_28_805
*5577 FILLER_0_28_811
*5578 FILLER_0_28_813
*5579 FILLER_0_28_821
*5580 FILLER_0_28_83
*5581 FILLER_0_28_85
*5582 FILLER_0_28_97
*5583 FILLER_0_29_105
*5584 FILLER_0_29_111
*5585 FILLER_0_29_113
*5586 FILLER_0_29_125
*5587 FILLER_0_29_137
*5588 FILLER_0_29_149
*5589 FILLER_0_29_15
*5590 FILLER_0_29_161
*5591 FILLER_0_29_167
*5592 FILLER_0_29_169
*5593 FILLER_0_29_181
*5594 FILLER_0_29_193
*5595 FILLER_0_29_205
*5596 FILLER_0_29_217
*5597 FILLER_0_29_223
*5598 FILLER_0_29_225
*5599 FILLER_0_29_237
*5600 FILLER_0_29_249
*5601 FILLER_0_29_261
*5602 FILLER_0_29_27
*5603 FILLER_0_29_273
*5604 FILLER_0_29_279
*5605 FILLER_0_29_281
*5606 FILLER_0_29_293
*5607 FILLER_0_29_3
*5608 FILLER_0_29_305
*5609 FILLER_0_29_317
*5610 FILLER_0_29_329
*5611 FILLER_0_29_335
*5612 FILLER_0_29_337
*5613 FILLER_0_29_349
*5614 FILLER_0_29_361
*5615 FILLER_0_29_373
*5616 FILLER_0_29_385
*5617 FILLER_0_29_39
*5618 FILLER_0_29_391
*5619 FILLER_0_29_393
*5620 FILLER_0_29_405
*5621 FILLER_0_29_417
*5622 FILLER_0_29_429
*5623 FILLER_0_29_441
*5624 FILLER_0_29_447
*5625 FILLER_0_29_449
*5626 FILLER_0_29_461
*5627 FILLER_0_29_473
*5628 FILLER_0_29_485
*5629 FILLER_0_29_497
*5630 FILLER_0_29_503
*5631 FILLER_0_29_505
*5632 FILLER_0_29_51
*5633 FILLER_0_29_517
*5634 FILLER_0_29_529
*5635 FILLER_0_29_541
*5636 FILLER_0_29_55
*5637 FILLER_0_29_553
*5638 FILLER_0_29_559
*5639 FILLER_0_29_561
*5640 FILLER_0_29_57
*5641 FILLER_0_29_573
*5642 FILLER_0_29_585
*5643 FILLER_0_29_597
*5644 FILLER_0_29_609
*5645 FILLER_0_29_615
*5646 FILLER_0_29_617
*5647 FILLER_0_29_629
*5648 FILLER_0_29_641
*5649 FILLER_0_29_653
*5650 FILLER_0_29_665
*5651 FILLER_0_29_671
*5652 FILLER_0_29_673
*5653 FILLER_0_29_685
*5654 FILLER_0_29_69
*5655 FILLER_0_29_697
*5656 FILLER_0_29_709
*5657 FILLER_0_29_721
*5658 FILLER_0_29_727
*5659 FILLER_0_29_729
*5660 FILLER_0_29_741
*5661 FILLER_0_29_753
*5662 FILLER_0_29_765
*5663 FILLER_0_29_777
*5664 FILLER_0_29_783
*5665 FILLER_0_29_785
*5666 FILLER_0_29_797
*5667 FILLER_0_29_809
*5668 FILLER_0_29_81
*5669 FILLER_0_29_821
*5670 FILLER_0_29_93
*5671 FILLER_0_2_109
*5672 FILLER_0_2_121
*5673 FILLER_0_2_133
*5674 FILLER_0_2_139
*5675 FILLER_0_2_141
*5676 FILLER_0_2_15
*5677 FILLER_0_2_153
*5678 FILLER_0_2_165
*5679 FILLER_0_2_177
*5680 FILLER_0_2_189
*5681 FILLER_0_2_195
*5682 FILLER_0_2_197
*5683 FILLER_0_2_209
*5684 FILLER_0_2_221
*5685 FILLER_0_2_233
*5686 FILLER_0_2_245
*5687 FILLER_0_2_251
*5688 FILLER_0_2_253
*5689 FILLER_0_2_265
*5690 FILLER_0_2_27
*5691 FILLER_0_2_277
*5692 FILLER_0_2_289
*5693 FILLER_0_2_29
*5694 FILLER_0_2_3
*5695 FILLER_0_2_301
*5696 FILLER_0_2_307
*5697 FILLER_0_2_309
*5698 FILLER_0_2_321
*5699 FILLER_0_2_333
*5700 FILLER_0_2_345
*5701 FILLER_0_2_357
*5702 FILLER_0_2_363
*5703 FILLER_0_2_365
*5704 FILLER_0_2_377
*5705 FILLER_0_2_389
*5706 FILLER_0_2_401
*5707 FILLER_0_2_41
*5708 FILLER_0_2_413
*5709 FILLER_0_2_419
*5710 FILLER_0_2_421
*5711 FILLER_0_2_433
*5712 FILLER_0_2_445
*5713 FILLER_0_2_457
*5714 FILLER_0_2_469
*5715 FILLER_0_2_475
*5716 FILLER_0_2_477
*5717 FILLER_0_2_489
*5718 FILLER_0_2_501
*5719 FILLER_0_2_513
*5720 FILLER_0_2_525
*5721 FILLER_0_2_53
*5722 FILLER_0_2_531
*5723 FILLER_0_2_533
*5724 FILLER_0_2_545
*5725 FILLER_0_2_557
*5726 FILLER_0_2_569
*5727 FILLER_0_2_581
*5728 FILLER_0_2_587
*5729 FILLER_0_2_589
*5730 FILLER_0_2_601
*5731 FILLER_0_2_613
*5732 FILLER_0_2_625
*5733 FILLER_0_2_637
*5734 FILLER_0_2_643
*5735 FILLER_0_2_645
*5736 FILLER_0_2_65
*5737 FILLER_0_2_657
*5738 FILLER_0_2_669
*5739 FILLER_0_2_681
*5740 FILLER_0_2_693
*5741 FILLER_0_2_699
*5742 FILLER_0_2_701
*5743 FILLER_0_2_713
*5744 FILLER_0_2_725
*5745 FILLER_0_2_737
*5746 FILLER_0_2_749
*5747 FILLER_0_2_755
*5748 FILLER_0_2_757
*5749 FILLER_0_2_769
*5750 FILLER_0_2_77
*5751 FILLER_0_2_781
*5752 FILLER_0_2_793
*5753 FILLER_0_2_805
*5754 FILLER_0_2_811
*5755 FILLER_0_2_813
*5756 FILLER_0_2_821
*5757 FILLER_0_2_83
*5758 FILLER_0_2_85
*5759 FILLER_0_2_97
*5760 FILLER_0_30_109
*5761 FILLER_0_30_121
*5762 FILLER_0_30_133
*5763 FILLER_0_30_139
*5764 FILLER_0_30_141
*5765 FILLER_0_30_15
*5766 FILLER_0_30_153
*5767 FILLER_0_30_165
*5768 FILLER_0_30_177
*5769 FILLER_0_30_189
*5770 FILLER_0_30_195
*5771 FILLER_0_30_197
*5772 FILLER_0_30_209
*5773 FILLER_0_30_221
*5774 FILLER_0_30_233
*5775 FILLER_0_30_245
*5776 FILLER_0_30_251
*5777 FILLER_0_30_253
*5778 FILLER_0_30_265
*5779 FILLER_0_30_27
*5780 FILLER_0_30_277
*5781 FILLER_0_30_289
*5782 FILLER_0_30_29
*5783 FILLER_0_30_3
*5784 FILLER_0_30_301
*5785 FILLER_0_30_307
*5786 FILLER_0_30_309
*5787 FILLER_0_30_321
*5788 FILLER_0_30_333
*5789 FILLER_0_30_345
*5790 FILLER_0_30_357
*5791 FILLER_0_30_363
*5792 FILLER_0_30_365
*5793 FILLER_0_30_377
*5794 FILLER_0_30_389
*5795 FILLER_0_30_401
*5796 FILLER_0_30_41
*5797 FILLER_0_30_413
*5798 FILLER_0_30_419
*5799 FILLER_0_30_421
*5800 FILLER_0_30_433
*5801 FILLER_0_30_445
*5802 FILLER_0_30_457
*5803 FILLER_0_30_469
*5804 FILLER_0_30_475
*5805 FILLER_0_30_477
*5806 FILLER_0_30_489
*5807 FILLER_0_30_501
*5808 FILLER_0_30_513
*5809 FILLER_0_30_525
*5810 FILLER_0_30_53
*5811 FILLER_0_30_531
*5812 FILLER_0_30_533
*5813 FILLER_0_30_545
*5814 FILLER_0_30_557
*5815 FILLER_0_30_569
*5816 FILLER_0_30_581
*5817 FILLER_0_30_587
*5818 FILLER_0_30_589
*5819 FILLER_0_30_601
*5820 FILLER_0_30_613
*5821 FILLER_0_30_625
*5822 FILLER_0_30_637
*5823 FILLER_0_30_643
*5824 FILLER_0_30_645
*5825 FILLER_0_30_65
*5826 FILLER_0_30_657
*5827 FILLER_0_30_669
*5828 FILLER_0_30_681
*5829 FILLER_0_30_693
*5830 FILLER_0_30_699
*5831 FILLER_0_30_701
*5832 FILLER_0_30_713
*5833 FILLER_0_30_725
*5834 FILLER_0_30_737
*5835 FILLER_0_30_749
*5836 FILLER_0_30_755
*5837 FILLER_0_30_757
*5838 FILLER_0_30_769
*5839 FILLER_0_30_77
*5840 FILLER_0_30_781
*5841 FILLER_0_30_793
*5842 FILLER_0_30_805
*5843 FILLER_0_30_811
*5844 FILLER_0_30_813
*5845 FILLER_0_30_821
*5846 FILLER_0_30_83
*5847 FILLER_0_30_85
*5848 FILLER_0_30_97
*5849 FILLER_0_31_105
*5850 FILLER_0_31_111
*5851 FILLER_0_31_113
*5852 FILLER_0_31_125
*5853 FILLER_0_31_137
*5854 FILLER_0_31_149
*5855 FILLER_0_31_15
*5856 FILLER_0_31_161
*5857 FILLER_0_31_167
*5858 FILLER_0_31_169
*5859 FILLER_0_31_181
*5860 FILLER_0_31_193
*5861 FILLER_0_31_205
*5862 FILLER_0_31_217
*5863 FILLER_0_31_223
*5864 FILLER_0_31_225
*5865 FILLER_0_31_237
*5866 FILLER_0_31_249
*5867 FILLER_0_31_261
*5868 FILLER_0_31_27
*5869 FILLER_0_31_273
*5870 FILLER_0_31_279
*5871 FILLER_0_31_281
*5872 FILLER_0_31_293
*5873 FILLER_0_31_3
*5874 FILLER_0_31_305
*5875 FILLER_0_31_317
*5876 FILLER_0_31_329
*5877 FILLER_0_31_335
*5878 FILLER_0_31_337
*5879 FILLER_0_31_349
*5880 FILLER_0_31_361
*5881 FILLER_0_31_373
*5882 FILLER_0_31_385
*5883 FILLER_0_31_39
*5884 FILLER_0_31_391
*5885 FILLER_0_31_393
*5886 FILLER_0_31_405
*5887 FILLER_0_31_417
*5888 FILLER_0_31_429
*5889 FILLER_0_31_441
*5890 FILLER_0_31_447
*5891 FILLER_0_31_449
*5892 FILLER_0_31_461
*5893 FILLER_0_31_473
*5894 FILLER_0_31_485
*5895 FILLER_0_31_497
*5896 FILLER_0_31_503
*5897 FILLER_0_31_505
*5898 FILLER_0_31_51
*5899 FILLER_0_31_517
*5900 FILLER_0_31_529
*5901 FILLER_0_31_541
*5902 FILLER_0_31_55
*5903 FILLER_0_31_553
*5904 FILLER_0_31_559
*5905 FILLER_0_31_561
*5906 FILLER_0_31_57
*5907 FILLER_0_31_573
*5908 FILLER_0_31_585
*5909 FILLER_0_31_597
*5910 FILLER_0_31_609
*5911 FILLER_0_31_615
*5912 FILLER_0_31_617
*5913 FILLER_0_31_629
*5914 FILLER_0_31_641
*5915 FILLER_0_31_653
*5916 FILLER_0_31_665
*5917 FILLER_0_31_671
*5918 FILLER_0_31_673
*5919 FILLER_0_31_685
*5920 FILLER_0_31_69
*5921 FILLER_0_31_697
*5922 FILLER_0_31_709
*5923 FILLER_0_31_721
*5924 FILLER_0_31_727
*5925 FILLER_0_31_729
*5926 FILLER_0_31_741
*5927 FILLER_0_31_753
*5928 FILLER_0_31_765
*5929 FILLER_0_31_777
*5930 FILLER_0_31_783
*5931 FILLER_0_31_785
*5932 FILLER_0_31_797
*5933 FILLER_0_31_809
*5934 FILLER_0_31_81
*5935 FILLER_0_31_821
*5936 FILLER_0_31_93
*5937 FILLER_0_32_109
*5938 FILLER_0_32_121
*5939 FILLER_0_32_133
*5940 FILLER_0_32_139
*5941 FILLER_0_32_141
*5942 FILLER_0_32_15
*5943 FILLER_0_32_153
*5944 FILLER_0_32_165
*5945 FILLER_0_32_177
*5946 FILLER_0_32_189
*5947 FILLER_0_32_195
*5948 FILLER_0_32_197
*5949 FILLER_0_32_209
*5950 FILLER_0_32_221
*5951 FILLER_0_32_233
*5952 FILLER_0_32_245
*5953 FILLER_0_32_251
*5954 FILLER_0_32_253
*5955 FILLER_0_32_265
*5956 FILLER_0_32_27
*5957 FILLER_0_32_277
*5958 FILLER_0_32_289
*5959 FILLER_0_32_29
*5960 FILLER_0_32_3
*5961 FILLER_0_32_301
*5962 FILLER_0_32_307
*5963 FILLER_0_32_309
*5964 FILLER_0_32_321
*5965 FILLER_0_32_333
*5966 FILLER_0_32_345
*5967 FILLER_0_32_357
*5968 FILLER_0_32_363
*5969 FILLER_0_32_365
*5970 FILLER_0_32_377
*5971 FILLER_0_32_389
*5972 FILLER_0_32_401
*5973 FILLER_0_32_41
*5974 FILLER_0_32_413
*5975 FILLER_0_32_419
*5976 FILLER_0_32_421
*5977 FILLER_0_32_433
*5978 FILLER_0_32_445
*5979 FILLER_0_32_457
*5980 FILLER_0_32_469
*5981 FILLER_0_32_475
*5982 FILLER_0_32_477
*5983 FILLER_0_32_489
*5984 FILLER_0_32_501
*5985 FILLER_0_32_513
*5986 FILLER_0_32_525
*5987 FILLER_0_32_53
*5988 FILLER_0_32_531
*5989 FILLER_0_32_533
*5990 FILLER_0_32_545
*5991 FILLER_0_32_557
*5992 FILLER_0_32_569
*5993 FILLER_0_32_581
*5994 FILLER_0_32_587
*5995 FILLER_0_32_589
*5996 FILLER_0_32_601
*5997 FILLER_0_32_613
*5998 FILLER_0_32_625
*5999 FILLER_0_32_637
*6000 FILLER_0_32_643
*6001 FILLER_0_32_645
*6002 FILLER_0_32_65
*6003 FILLER_0_32_657
*6004 FILLER_0_32_669
*6005 FILLER_0_32_681
*6006 FILLER_0_32_693
*6007 FILLER_0_32_699
*6008 FILLER_0_32_701
*6009 FILLER_0_32_713
*6010 FILLER_0_32_725
*6011 FILLER_0_32_737
*6012 FILLER_0_32_749
*6013 FILLER_0_32_755
*6014 FILLER_0_32_757
*6015 FILLER_0_32_769
*6016 FILLER_0_32_77
*6017 FILLER_0_32_781
*6018 FILLER_0_32_793
*6019 FILLER_0_32_805
*6020 FILLER_0_32_811
*6021 FILLER_0_32_813
*6022 FILLER_0_32_821
*6023 FILLER_0_32_83
*6024 FILLER_0_32_85
*6025 FILLER_0_32_97
*6026 FILLER_0_33_105
*6027 FILLER_0_33_111
*6028 FILLER_0_33_113
*6029 FILLER_0_33_125
*6030 FILLER_0_33_137
*6031 FILLER_0_33_149
*6032 FILLER_0_33_15
*6033 FILLER_0_33_161
*6034 FILLER_0_33_167
*6035 FILLER_0_33_169
*6036 FILLER_0_33_181
*6037 FILLER_0_33_193
*6038 FILLER_0_33_205
*6039 FILLER_0_33_217
*6040 FILLER_0_33_223
*6041 FILLER_0_33_225
*6042 FILLER_0_33_237
*6043 FILLER_0_33_249
*6044 FILLER_0_33_261
*6045 FILLER_0_33_27
*6046 FILLER_0_33_273
*6047 FILLER_0_33_279
*6048 FILLER_0_33_281
*6049 FILLER_0_33_293
*6050 FILLER_0_33_3
*6051 FILLER_0_33_305
*6052 FILLER_0_33_317
*6053 FILLER_0_33_329
*6054 FILLER_0_33_335
*6055 FILLER_0_33_337
*6056 FILLER_0_33_349
*6057 FILLER_0_33_361
*6058 FILLER_0_33_373
*6059 FILLER_0_33_385
*6060 FILLER_0_33_39
*6061 FILLER_0_33_391
*6062 FILLER_0_33_393
*6063 FILLER_0_33_405
*6064 FILLER_0_33_417
*6065 FILLER_0_33_429
*6066 FILLER_0_33_441
*6067 FILLER_0_33_447
*6068 FILLER_0_33_449
*6069 FILLER_0_33_461
*6070 FILLER_0_33_473
*6071 FILLER_0_33_485
*6072 FILLER_0_33_497
*6073 FILLER_0_33_503
*6074 FILLER_0_33_505
*6075 FILLER_0_33_51
*6076 FILLER_0_33_517
*6077 FILLER_0_33_529
*6078 FILLER_0_33_541
*6079 FILLER_0_33_55
*6080 FILLER_0_33_553
*6081 FILLER_0_33_559
*6082 FILLER_0_33_561
*6083 FILLER_0_33_57
*6084 FILLER_0_33_573
*6085 FILLER_0_33_585
*6086 FILLER_0_33_597
*6087 FILLER_0_33_609
*6088 FILLER_0_33_615
*6089 FILLER_0_33_617
*6090 FILLER_0_33_629
*6091 FILLER_0_33_641
*6092 FILLER_0_33_653
*6093 FILLER_0_33_665
*6094 FILLER_0_33_671
*6095 FILLER_0_33_673
*6096 FILLER_0_33_685
*6097 FILLER_0_33_69
*6098 FILLER_0_33_697
*6099 FILLER_0_33_709
*6100 FILLER_0_33_721
*6101 FILLER_0_33_727
*6102 FILLER_0_33_729
*6103 FILLER_0_33_741
*6104 FILLER_0_33_753
*6105 FILLER_0_33_765
*6106 FILLER_0_33_777
*6107 FILLER_0_33_783
*6108 FILLER_0_33_785
*6109 FILLER_0_33_797
*6110 FILLER_0_33_809
*6111 FILLER_0_33_81
*6112 FILLER_0_33_821
*6113 FILLER_0_33_93
*6114 FILLER_0_34_109
*6115 FILLER_0_34_121
*6116 FILLER_0_34_133
*6117 FILLER_0_34_139
*6118 FILLER_0_34_141
*6119 FILLER_0_34_15
*6120 FILLER_0_34_153
*6121 FILLER_0_34_165
*6122 FILLER_0_34_177
*6123 FILLER_0_34_189
*6124 FILLER_0_34_195
*6125 FILLER_0_34_197
*6126 FILLER_0_34_209
*6127 FILLER_0_34_221
*6128 FILLER_0_34_233
*6129 FILLER_0_34_245
*6130 FILLER_0_34_251
*6131 FILLER_0_34_253
*6132 FILLER_0_34_265
*6133 FILLER_0_34_27
*6134 FILLER_0_34_277
*6135 FILLER_0_34_289
*6136 FILLER_0_34_29
*6137 FILLER_0_34_3
*6138 FILLER_0_34_301
*6139 FILLER_0_34_307
*6140 FILLER_0_34_309
*6141 FILLER_0_34_321
*6142 FILLER_0_34_333
*6143 FILLER_0_34_345
*6144 FILLER_0_34_357
*6145 FILLER_0_34_363
*6146 FILLER_0_34_365
*6147 FILLER_0_34_377
*6148 FILLER_0_34_389
*6149 FILLER_0_34_401
*6150 FILLER_0_34_41
*6151 FILLER_0_34_413
*6152 FILLER_0_34_419
*6153 FILLER_0_34_421
*6154 FILLER_0_34_433
*6155 FILLER_0_34_445
*6156 FILLER_0_34_457
*6157 FILLER_0_34_469
*6158 FILLER_0_34_475
*6159 FILLER_0_34_477
*6160 FILLER_0_34_489
*6161 FILLER_0_34_501
*6162 FILLER_0_34_513
*6163 FILLER_0_34_525
*6164 FILLER_0_34_53
*6165 FILLER_0_34_531
*6166 FILLER_0_34_533
*6167 FILLER_0_34_545
*6168 FILLER_0_34_557
*6169 FILLER_0_34_569
*6170 FILLER_0_34_581
*6171 FILLER_0_34_587
*6172 FILLER_0_34_589
*6173 FILLER_0_34_601
*6174 FILLER_0_34_613
*6175 FILLER_0_34_625
*6176 FILLER_0_34_637
*6177 FILLER_0_34_643
*6178 FILLER_0_34_645
*6179 FILLER_0_34_65
*6180 FILLER_0_34_657
*6181 FILLER_0_34_669
*6182 FILLER_0_34_681
*6183 FILLER_0_34_693
*6184 FILLER_0_34_699
*6185 FILLER_0_34_701
*6186 FILLER_0_34_713
*6187 FILLER_0_34_725
*6188 FILLER_0_34_737
*6189 FILLER_0_34_749
*6190 FILLER_0_34_755
*6191 FILLER_0_34_757
*6192 FILLER_0_34_769
*6193 FILLER_0_34_77
*6194 FILLER_0_34_781
*6195 FILLER_0_34_793
*6196 FILLER_0_34_805
*6197 FILLER_0_34_811
*6198 FILLER_0_34_813
*6199 FILLER_0_34_821
*6200 FILLER_0_34_83
*6201 FILLER_0_34_85
*6202 FILLER_0_34_97
*6203 FILLER_0_35_105
*6204 FILLER_0_35_111
*6205 FILLER_0_35_113
*6206 FILLER_0_35_125
*6207 FILLER_0_35_137
*6208 FILLER_0_35_149
*6209 FILLER_0_35_15
*6210 FILLER_0_35_161
*6211 FILLER_0_35_167
*6212 FILLER_0_35_169
*6213 FILLER_0_35_181
*6214 FILLER_0_35_193
*6215 FILLER_0_35_205
*6216 FILLER_0_35_217
*6217 FILLER_0_35_223
*6218 FILLER_0_35_225
*6219 FILLER_0_35_237
*6220 FILLER_0_35_249
*6221 FILLER_0_35_261
*6222 FILLER_0_35_27
*6223 FILLER_0_35_273
*6224 FILLER_0_35_279
*6225 FILLER_0_35_281
*6226 FILLER_0_35_293
*6227 FILLER_0_35_3
*6228 FILLER_0_35_305
*6229 FILLER_0_35_317
*6230 FILLER_0_35_329
*6231 FILLER_0_35_335
*6232 FILLER_0_35_337
*6233 FILLER_0_35_349
*6234 FILLER_0_35_361
*6235 FILLER_0_35_373
*6236 FILLER_0_35_385
*6237 FILLER_0_35_39
*6238 FILLER_0_35_391
*6239 FILLER_0_35_393
*6240 FILLER_0_35_405
*6241 FILLER_0_35_417
*6242 FILLER_0_35_429
*6243 FILLER_0_35_441
*6244 FILLER_0_35_447
*6245 FILLER_0_35_449
*6246 FILLER_0_35_461
*6247 FILLER_0_35_473
*6248 FILLER_0_35_485
*6249 FILLER_0_35_497
*6250 FILLER_0_35_503
*6251 FILLER_0_35_505
*6252 FILLER_0_35_51
*6253 FILLER_0_35_517
*6254 FILLER_0_35_529
*6255 FILLER_0_35_541
*6256 FILLER_0_35_55
*6257 FILLER_0_35_553
*6258 FILLER_0_35_559
*6259 FILLER_0_35_561
*6260 FILLER_0_35_57
*6261 FILLER_0_35_573
*6262 FILLER_0_35_585
*6263 FILLER_0_35_597
*6264 FILLER_0_35_609
*6265 FILLER_0_35_615
*6266 FILLER_0_35_617
*6267 FILLER_0_35_629
*6268 FILLER_0_35_641
*6269 FILLER_0_35_653
*6270 FILLER_0_35_665
*6271 FILLER_0_35_671
*6272 FILLER_0_35_673
*6273 FILLER_0_35_685
*6274 FILLER_0_35_69
*6275 FILLER_0_35_697
*6276 FILLER_0_35_709
*6277 FILLER_0_35_721
*6278 FILLER_0_35_727
*6279 FILLER_0_35_729
*6280 FILLER_0_35_741
*6281 FILLER_0_35_753
*6282 FILLER_0_35_765
*6283 FILLER_0_35_777
*6284 FILLER_0_35_783
*6285 FILLER_0_35_785
*6286 FILLER_0_35_797
*6287 FILLER_0_35_809
*6288 FILLER_0_35_81
*6289 FILLER_0_35_821
*6290 FILLER_0_35_93
*6291 FILLER_0_36_109
*6292 FILLER_0_36_121
*6293 FILLER_0_36_133
*6294 FILLER_0_36_139
*6295 FILLER_0_36_141
*6296 FILLER_0_36_15
*6297 FILLER_0_36_153
*6298 FILLER_0_36_165
*6299 FILLER_0_36_177
*6300 FILLER_0_36_189
*6301 FILLER_0_36_195
*6302 FILLER_0_36_197
*6303 FILLER_0_36_209
*6304 FILLER_0_36_221
*6305 FILLER_0_36_233
*6306 FILLER_0_36_245
*6307 FILLER_0_36_251
*6308 FILLER_0_36_253
*6309 FILLER_0_36_265
*6310 FILLER_0_36_27
*6311 FILLER_0_36_277
*6312 FILLER_0_36_289
*6313 FILLER_0_36_29
*6314 FILLER_0_36_3
*6315 FILLER_0_36_301
*6316 FILLER_0_36_307
*6317 FILLER_0_36_309
*6318 FILLER_0_36_321
*6319 FILLER_0_36_333
*6320 FILLER_0_36_345
*6321 FILLER_0_36_357
*6322 FILLER_0_36_363
*6323 FILLER_0_36_365
*6324 FILLER_0_36_377
*6325 FILLER_0_36_389
*6326 FILLER_0_36_401
*6327 FILLER_0_36_41
*6328 FILLER_0_36_413
*6329 FILLER_0_36_419
*6330 FILLER_0_36_421
*6331 FILLER_0_36_433
*6332 FILLER_0_36_445
*6333 FILLER_0_36_457
*6334 FILLER_0_36_469
*6335 FILLER_0_36_475
*6336 FILLER_0_36_477
*6337 FILLER_0_36_489
*6338 FILLER_0_36_501
*6339 FILLER_0_36_513
*6340 FILLER_0_36_525
*6341 FILLER_0_36_53
*6342 FILLER_0_36_531
*6343 FILLER_0_36_533
*6344 FILLER_0_36_545
*6345 FILLER_0_36_557
*6346 FILLER_0_36_569
*6347 FILLER_0_36_581
*6348 FILLER_0_36_587
*6349 FILLER_0_36_589
*6350 FILLER_0_36_601
*6351 FILLER_0_36_613
*6352 FILLER_0_36_625
*6353 FILLER_0_36_637
*6354 FILLER_0_36_643
*6355 FILLER_0_36_645
*6356 FILLER_0_36_65
*6357 FILLER_0_36_657
*6358 FILLER_0_36_669
*6359 FILLER_0_36_681
*6360 FILLER_0_36_693
*6361 FILLER_0_36_699
*6362 FILLER_0_36_701
*6363 FILLER_0_36_713
*6364 FILLER_0_36_725
*6365 FILLER_0_36_737
*6366 FILLER_0_36_749
*6367 FILLER_0_36_755
*6368 FILLER_0_36_757
*6369 FILLER_0_36_769
*6370 FILLER_0_36_77
*6371 FILLER_0_36_781
*6372 FILLER_0_36_793
*6373 FILLER_0_36_805
*6374 FILLER_0_36_811
*6375 FILLER_0_36_813
*6376 FILLER_0_36_821
*6377 FILLER_0_36_83
*6378 FILLER_0_36_85
*6379 FILLER_0_36_97
*6380 FILLER_0_37_105
*6381 FILLER_0_37_111
*6382 FILLER_0_37_113
*6383 FILLER_0_37_125
*6384 FILLER_0_37_137
*6385 FILLER_0_37_149
*6386 FILLER_0_37_161
*6387 FILLER_0_37_167
*6388 FILLER_0_37_169
*6389 FILLER_0_37_181
*6390 FILLER_0_37_193
*6391 FILLER_0_37_205
*6392 FILLER_0_37_21
*6393 FILLER_0_37_217
*6394 FILLER_0_37_223
*6395 FILLER_0_37_225
*6396 FILLER_0_37_237
*6397 FILLER_0_37_249
*6398 FILLER_0_37_261
*6399 FILLER_0_37_273
*6400 FILLER_0_37_279
*6401 FILLER_0_37_281
*6402 FILLER_0_37_293
*6403 FILLER_0_37_305
*6404 FILLER_0_37_317
*6405 FILLER_0_37_329
*6406 FILLER_0_37_33
*6407 FILLER_0_37_335
*6408 FILLER_0_37_337
*6409 FILLER_0_37_349
*6410 FILLER_0_37_361
*6411 FILLER_0_37_373
*6412 FILLER_0_37_385
*6413 FILLER_0_37_391
*6414 FILLER_0_37_393
*6415 FILLER_0_37_405
*6416 FILLER_0_37_417
*6417 FILLER_0_37_429
*6418 FILLER_0_37_441
*6419 FILLER_0_37_447
*6420 FILLER_0_37_449
*6421 FILLER_0_37_45
*6422 FILLER_0_37_461
*6423 FILLER_0_37_473
*6424 FILLER_0_37_485
*6425 FILLER_0_37_497
*6426 FILLER_0_37_503
*6427 FILLER_0_37_505
*6428 FILLER_0_37_517
*6429 FILLER_0_37_529
*6430 FILLER_0_37_53
*6431 FILLER_0_37_541
*6432 FILLER_0_37_553
*6433 FILLER_0_37_559
*6434 FILLER_0_37_561
*6435 FILLER_0_37_57
*6436 FILLER_0_37_573
*6437 FILLER_0_37_585
*6438 FILLER_0_37_597
*6439 FILLER_0_37_609
*6440 FILLER_0_37_615
*6441 FILLER_0_37_617
*6442 FILLER_0_37_629
*6443 FILLER_0_37_641
*6444 FILLER_0_37_653
*6445 FILLER_0_37_665
*6446 FILLER_0_37_671
*6447 FILLER_0_37_673
*6448 FILLER_0_37_685
*6449 FILLER_0_37_69
*6450 FILLER_0_37_697
*6451 FILLER_0_37_709
*6452 FILLER_0_37_721
*6453 FILLER_0_37_727
*6454 FILLER_0_37_729
*6455 FILLER_0_37_741
*6456 FILLER_0_37_753
*6457 FILLER_0_37_765
*6458 FILLER_0_37_777
*6459 FILLER_0_37_783
*6460 FILLER_0_37_785
*6461 FILLER_0_37_797
*6462 FILLER_0_37_809
*6463 FILLER_0_37_81
*6464 FILLER_0_37_821
*6465 FILLER_0_37_9
*6466 FILLER_0_37_93
*6467 FILLER_0_38_109
*6468 FILLER_0_38_121
*6469 FILLER_0_38_133
*6470 FILLER_0_38_139
*6471 FILLER_0_38_141
*6472 FILLER_0_38_15
*6473 FILLER_0_38_153
*6474 FILLER_0_38_165
*6475 FILLER_0_38_177
*6476 FILLER_0_38_189
*6477 FILLER_0_38_195
*6478 FILLER_0_38_197
*6479 FILLER_0_38_209
*6480 FILLER_0_38_221
*6481 FILLER_0_38_233
*6482 FILLER_0_38_245
*6483 FILLER_0_38_251
*6484 FILLER_0_38_253
*6485 FILLER_0_38_265
*6486 FILLER_0_38_27
*6487 FILLER_0_38_277
*6488 FILLER_0_38_289
*6489 FILLER_0_38_29
*6490 FILLER_0_38_3
*6491 FILLER_0_38_301
*6492 FILLER_0_38_307
*6493 FILLER_0_38_309
*6494 FILLER_0_38_321
*6495 FILLER_0_38_333
*6496 FILLER_0_38_345
*6497 FILLER_0_38_357
*6498 FILLER_0_38_363
*6499 FILLER_0_38_365
*6500 FILLER_0_38_377
*6501 FILLER_0_38_389
*6502 FILLER_0_38_401
*6503 FILLER_0_38_41
*6504 FILLER_0_38_413
*6505 FILLER_0_38_419
*6506 FILLER_0_38_421
*6507 FILLER_0_38_433
*6508 FILLER_0_38_445
*6509 FILLER_0_38_457
*6510 FILLER_0_38_469
*6511 FILLER_0_38_475
*6512 FILLER_0_38_477
*6513 FILLER_0_38_489
*6514 FILLER_0_38_501
*6515 FILLER_0_38_513
*6516 FILLER_0_38_525
*6517 FILLER_0_38_53
*6518 FILLER_0_38_531
*6519 FILLER_0_38_533
*6520 FILLER_0_38_545
*6521 FILLER_0_38_557
*6522 FILLER_0_38_569
*6523 FILLER_0_38_581
*6524 FILLER_0_38_587
*6525 FILLER_0_38_589
*6526 FILLER_0_38_601
*6527 FILLER_0_38_613
*6528 FILLER_0_38_625
*6529 FILLER_0_38_637
*6530 FILLER_0_38_643
*6531 FILLER_0_38_645
*6532 FILLER_0_38_65
*6533 FILLER_0_38_657
*6534 FILLER_0_38_669
*6535 FILLER_0_38_681
*6536 FILLER_0_38_693
*6537 FILLER_0_38_699
*6538 FILLER_0_38_701
*6539 FILLER_0_38_713
*6540 FILLER_0_38_725
*6541 FILLER_0_38_737
*6542 FILLER_0_38_749
*6543 FILLER_0_38_755
*6544 FILLER_0_38_757
*6545 FILLER_0_38_769
*6546 FILLER_0_38_77
*6547 FILLER_0_38_781
*6548 FILLER_0_38_793
*6549 FILLER_0_38_805
*6550 FILLER_0_38_811
*6551 FILLER_0_38_813
*6552 FILLER_0_38_821
*6553 FILLER_0_38_83
*6554 FILLER_0_38_85
*6555 FILLER_0_38_97
*6556 FILLER_0_39_105
*6557 FILLER_0_39_111
*6558 FILLER_0_39_113
*6559 FILLER_0_39_125
*6560 FILLER_0_39_137
*6561 FILLER_0_39_149
*6562 FILLER_0_39_15
*6563 FILLER_0_39_161
*6564 FILLER_0_39_167
*6565 FILLER_0_39_169
*6566 FILLER_0_39_181
*6567 FILLER_0_39_19
*6568 FILLER_0_39_193
*6569 FILLER_0_39_205
*6570 FILLER_0_39_217
*6571 FILLER_0_39_223
*6572 FILLER_0_39_225
*6573 FILLER_0_39_237
*6574 FILLER_0_39_249
*6575 FILLER_0_39_261
*6576 FILLER_0_39_273
*6577 FILLER_0_39_279
*6578 FILLER_0_39_281
*6579 FILLER_0_39_293
*6580 FILLER_0_39_3
*6581 FILLER_0_39_305
*6582 FILLER_0_39_31
*6583 FILLER_0_39_317
*6584 FILLER_0_39_329
*6585 FILLER_0_39_335
*6586 FILLER_0_39_337
*6587 FILLER_0_39_349
*6588 FILLER_0_39_361
*6589 FILLER_0_39_373
*6590 FILLER_0_39_385
*6591 FILLER_0_39_391
*6592 FILLER_0_39_393
*6593 FILLER_0_39_405
*6594 FILLER_0_39_417
*6595 FILLER_0_39_429
*6596 FILLER_0_39_43
*6597 FILLER_0_39_441
*6598 FILLER_0_39_447
*6599 FILLER_0_39_449
*6600 FILLER_0_39_461
*6601 FILLER_0_39_473
*6602 FILLER_0_39_485
*6603 FILLER_0_39_497
*6604 FILLER_0_39_503
*6605 FILLER_0_39_505
*6606 FILLER_0_39_517
*6607 FILLER_0_39_529
*6608 FILLER_0_39_541
*6609 FILLER_0_39_55
*6610 FILLER_0_39_553
*6611 FILLER_0_39_559
*6612 FILLER_0_39_561
*6613 FILLER_0_39_57
*6614 FILLER_0_39_573
*6615 FILLER_0_39_585
*6616 FILLER_0_39_597
*6617 FILLER_0_39_609
*6618 FILLER_0_39_615
*6619 FILLER_0_39_617
*6620 FILLER_0_39_629
*6621 FILLER_0_39_641
*6622 FILLER_0_39_653
*6623 FILLER_0_39_665
*6624 FILLER_0_39_671
*6625 FILLER_0_39_673
*6626 FILLER_0_39_685
*6627 FILLER_0_39_69
*6628 FILLER_0_39_697
*6629 FILLER_0_39_709
*6630 FILLER_0_39_721
*6631 FILLER_0_39_727
*6632 FILLER_0_39_729
*6633 FILLER_0_39_741
*6634 FILLER_0_39_753
*6635 FILLER_0_39_765
*6636 FILLER_0_39_777
*6637 FILLER_0_39_783
*6638 FILLER_0_39_785
*6639 FILLER_0_39_797
*6640 FILLER_0_39_809
*6641 FILLER_0_39_81
*6642 FILLER_0_39_821
*6643 FILLER_0_39_93
*6644 FILLER_0_3_105
*6645 FILLER_0_3_111
*6646 FILLER_0_3_113
*6647 FILLER_0_3_125
*6648 FILLER_0_3_137
*6649 FILLER_0_3_149
*6650 FILLER_0_3_15
*6651 FILLER_0_3_161
*6652 FILLER_0_3_167
*6653 FILLER_0_3_169
*6654 FILLER_0_3_181
*6655 FILLER_0_3_193
*6656 FILLER_0_3_205
*6657 FILLER_0_3_217
*6658 FILLER_0_3_223
*6659 FILLER_0_3_225
*6660 FILLER_0_3_237
*6661 FILLER_0_3_249
*6662 FILLER_0_3_261
*6663 FILLER_0_3_27
*6664 FILLER_0_3_273
*6665 FILLER_0_3_279
*6666 FILLER_0_3_281
*6667 FILLER_0_3_293
*6668 FILLER_0_3_3
*6669 FILLER_0_3_305
*6670 FILLER_0_3_317
*6671 FILLER_0_3_329
*6672 FILLER_0_3_335
*6673 FILLER_0_3_337
*6674 FILLER_0_3_349
*6675 FILLER_0_3_361
*6676 FILLER_0_3_373
*6677 FILLER_0_3_385
*6678 FILLER_0_3_39
*6679 FILLER_0_3_391
*6680 FILLER_0_3_393
*6681 FILLER_0_3_405
*6682 FILLER_0_3_417
*6683 FILLER_0_3_429
*6684 FILLER_0_3_433
*6685 FILLER_0_3_445
*6686 FILLER_0_3_449
*6687 FILLER_0_3_461
*6688 FILLER_0_3_473
*6689 FILLER_0_3_485
*6690 FILLER_0_3_497
*6691 FILLER_0_3_503
*6692 FILLER_0_3_505
*6693 FILLER_0_3_51
*6694 FILLER_0_3_517
*6695 FILLER_0_3_529
*6696 FILLER_0_3_541
*6697 FILLER_0_3_55
*6698 FILLER_0_3_553
*6699 FILLER_0_3_559
*6700 FILLER_0_3_561
*6701 FILLER_0_3_57
*6702 FILLER_0_3_573
*6703 FILLER_0_3_585
*6704 FILLER_0_3_597
*6705 FILLER_0_3_609
*6706 FILLER_0_3_615
*6707 FILLER_0_3_617
*6708 FILLER_0_3_629
*6709 FILLER_0_3_641
*6710 FILLER_0_3_653
*6711 FILLER_0_3_665
*6712 FILLER_0_3_671
*6713 FILLER_0_3_673
*6714 FILLER_0_3_685
*6715 FILLER_0_3_69
*6716 FILLER_0_3_697
*6717 FILLER_0_3_709
*6718 FILLER_0_3_721
*6719 FILLER_0_3_727
*6720 FILLER_0_3_729
*6721 FILLER_0_3_741
*6722 FILLER_0_3_753
*6723 FILLER_0_3_765
*6724 FILLER_0_3_777
*6725 FILLER_0_3_783
*6726 FILLER_0_3_785
*6727 FILLER_0_3_797
*6728 FILLER_0_3_809
*6729 FILLER_0_3_81
*6730 FILLER_0_3_821
*6731 FILLER_0_3_93
*6732 FILLER_0_40_109
*6733 FILLER_0_40_121
*6734 FILLER_0_40_133
*6735 FILLER_0_40_139
*6736 FILLER_0_40_141
*6737 FILLER_0_40_15
*6738 FILLER_0_40_153
*6739 FILLER_0_40_165
*6740 FILLER_0_40_177
*6741 FILLER_0_40_189
*6742 FILLER_0_40_195
*6743 FILLER_0_40_197
*6744 FILLER_0_40_209
*6745 FILLER_0_40_221
*6746 FILLER_0_40_233
*6747 FILLER_0_40_245
*6748 FILLER_0_40_251
*6749 FILLER_0_40_253
*6750 FILLER_0_40_265
*6751 FILLER_0_40_27
*6752 FILLER_0_40_277
*6753 FILLER_0_40_289
*6754 FILLER_0_40_29
*6755 FILLER_0_40_3
*6756 FILLER_0_40_301
*6757 FILLER_0_40_307
*6758 FILLER_0_40_309
*6759 FILLER_0_40_321
*6760 FILLER_0_40_333
*6761 FILLER_0_40_345
*6762 FILLER_0_40_357
*6763 FILLER_0_40_363
*6764 FILLER_0_40_365
*6765 FILLER_0_40_377
*6766 FILLER_0_40_389
*6767 FILLER_0_40_401
*6768 FILLER_0_40_41
*6769 FILLER_0_40_413
*6770 FILLER_0_40_419
*6771 FILLER_0_40_421
*6772 FILLER_0_40_433
*6773 FILLER_0_40_445
*6774 FILLER_0_40_457
*6775 FILLER_0_40_469
*6776 FILLER_0_40_475
*6777 FILLER_0_40_477
*6778 FILLER_0_40_489
*6779 FILLER_0_40_501
*6780 FILLER_0_40_513
*6781 FILLER_0_40_525
*6782 FILLER_0_40_53
*6783 FILLER_0_40_531
*6784 FILLER_0_40_533
*6785 FILLER_0_40_545
*6786 FILLER_0_40_557
*6787 FILLER_0_40_569
*6788 FILLER_0_40_581
*6789 FILLER_0_40_587
*6790 FILLER_0_40_589
*6791 FILLER_0_40_601
*6792 FILLER_0_40_613
*6793 FILLER_0_40_625
*6794 FILLER_0_40_637
*6795 FILLER_0_40_643
*6796 FILLER_0_40_645
*6797 FILLER_0_40_65
*6798 FILLER_0_40_657
*6799 FILLER_0_40_669
*6800 FILLER_0_40_681
*6801 FILLER_0_40_693
*6802 FILLER_0_40_699
*6803 FILLER_0_40_701
*6804 FILLER_0_40_713
*6805 FILLER_0_40_725
*6806 FILLER_0_40_737
*6807 FILLER_0_40_749
*6808 FILLER_0_40_755
*6809 FILLER_0_40_757
*6810 FILLER_0_40_769
*6811 FILLER_0_40_77
*6812 FILLER_0_40_781
*6813 FILLER_0_40_793
*6814 FILLER_0_40_805
*6815 FILLER_0_40_811
*6816 FILLER_0_40_813
*6817 FILLER_0_40_821
*6818 FILLER_0_40_83
*6819 FILLER_0_40_85
*6820 FILLER_0_40_97
*6821 FILLER_0_41_105
*6822 FILLER_0_41_111
*6823 FILLER_0_41_113
*6824 FILLER_0_41_125
*6825 FILLER_0_41_137
*6826 FILLER_0_41_149
*6827 FILLER_0_41_15
*6828 FILLER_0_41_161
*6829 FILLER_0_41_167
*6830 FILLER_0_41_169
*6831 FILLER_0_41_181
*6832 FILLER_0_41_193
*6833 FILLER_0_41_205
*6834 FILLER_0_41_217
*6835 FILLER_0_41_223
*6836 FILLER_0_41_225
*6837 FILLER_0_41_237
*6838 FILLER_0_41_249
*6839 FILLER_0_41_261
*6840 FILLER_0_41_27
*6841 FILLER_0_41_273
*6842 FILLER_0_41_279
*6843 FILLER_0_41_281
*6844 FILLER_0_41_293
*6845 FILLER_0_41_3
*6846 FILLER_0_41_305
*6847 FILLER_0_41_317
*6848 FILLER_0_41_329
*6849 FILLER_0_41_335
*6850 FILLER_0_41_337
*6851 FILLER_0_41_349
*6852 FILLER_0_41_361
*6853 FILLER_0_41_373
*6854 FILLER_0_41_385
*6855 FILLER_0_41_39
*6856 FILLER_0_41_391
*6857 FILLER_0_41_393
*6858 FILLER_0_41_405
*6859 FILLER_0_41_417
*6860 FILLER_0_41_429
*6861 FILLER_0_41_441
*6862 FILLER_0_41_447
*6863 FILLER_0_41_449
*6864 FILLER_0_41_461
*6865 FILLER_0_41_473
*6866 FILLER_0_41_485
*6867 FILLER_0_41_497
*6868 FILLER_0_41_503
*6869 FILLER_0_41_505
*6870 FILLER_0_41_51
*6871 FILLER_0_41_517
*6872 FILLER_0_41_529
*6873 FILLER_0_41_541
*6874 FILLER_0_41_55
*6875 FILLER_0_41_553
*6876 FILLER_0_41_559
*6877 FILLER_0_41_561
*6878 FILLER_0_41_57
*6879 FILLER_0_41_573
*6880 FILLER_0_41_585
*6881 FILLER_0_41_597
*6882 FILLER_0_41_609
*6883 FILLER_0_41_615
*6884 FILLER_0_41_617
*6885 FILLER_0_41_629
*6886 FILLER_0_41_641
*6887 FILLER_0_41_653
*6888 FILLER_0_41_665
*6889 FILLER_0_41_671
*6890 FILLER_0_41_673
*6891 FILLER_0_41_685
*6892 FILLER_0_41_69
*6893 FILLER_0_41_697
*6894 FILLER_0_41_709
*6895 FILLER_0_41_721
*6896 FILLER_0_41_727
*6897 FILLER_0_41_729
*6898 FILLER_0_41_741
*6899 FILLER_0_41_753
*6900 FILLER_0_41_765
*6901 FILLER_0_41_777
*6902 FILLER_0_41_783
*6903 FILLER_0_41_785
*6904 FILLER_0_41_797
*6905 FILLER_0_41_809
*6906 FILLER_0_41_81
*6907 FILLER_0_41_821
*6908 FILLER_0_41_93
*6909 FILLER_0_42_109
*6910 FILLER_0_42_121
*6911 FILLER_0_42_133
*6912 FILLER_0_42_139
*6913 FILLER_0_42_141
*6914 FILLER_0_42_15
*6915 FILLER_0_42_153
*6916 FILLER_0_42_165
*6917 FILLER_0_42_177
*6918 FILLER_0_42_189
*6919 FILLER_0_42_195
*6920 FILLER_0_42_197
*6921 FILLER_0_42_209
*6922 FILLER_0_42_221
*6923 FILLER_0_42_233
*6924 FILLER_0_42_245
*6925 FILLER_0_42_251
*6926 FILLER_0_42_253
*6927 FILLER_0_42_265
*6928 FILLER_0_42_27
*6929 FILLER_0_42_277
*6930 FILLER_0_42_289
*6931 FILLER_0_42_29
*6932 FILLER_0_42_3
*6933 FILLER_0_42_301
*6934 FILLER_0_42_307
*6935 FILLER_0_42_309
*6936 FILLER_0_42_321
*6937 FILLER_0_42_333
*6938 FILLER_0_42_345
*6939 FILLER_0_42_357
*6940 FILLER_0_42_363
*6941 FILLER_0_42_365
*6942 FILLER_0_42_377
*6943 FILLER_0_42_389
*6944 FILLER_0_42_401
*6945 FILLER_0_42_41
*6946 FILLER_0_42_413
*6947 FILLER_0_42_419
*6948 FILLER_0_42_421
*6949 FILLER_0_42_433
*6950 FILLER_0_42_445
*6951 FILLER_0_42_457
*6952 FILLER_0_42_469
*6953 FILLER_0_42_475
*6954 FILLER_0_42_477
*6955 FILLER_0_42_489
*6956 FILLER_0_42_501
*6957 FILLER_0_42_513
*6958 FILLER_0_42_525
*6959 FILLER_0_42_53
*6960 FILLER_0_42_531
*6961 FILLER_0_42_533
*6962 FILLER_0_42_545
*6963 FILLER_0_42_557
*6964 FILLER_0_42_569
*6965 FILLER_0_42_581
*6966 FILLER_0_42_587
*6967 FILLER_0_42_589
*6968 FILLER_0_42_601
*6969 FILLER_0_42_613
*6970 FILLER_0_42_625
*6971 FILLER_0_42_637
*6972 FILLER_0_42_643
*6973 FILLER_0_42_645
*6974 FILLER_0_42_65
*6975 FILLER_0_42_657
*6976 FILLER_0_42_669
*6977 FILLER_0_42_681
*6978 FILLER_0_42_693
*6979 FILLER_0_42_699
*6980 FILLER_0_42_701
*6981 FILLER_0_42_713
*6982 FILLER_0_42_725
*6983 FILLER_0_42_737
*6984 FILLER_0_42_749
*6985 FILLER_0_42_755
*6986 FILLER_0_42_757
*6987 FILLER_0_42_769
*6988 FILLER_0_42_77
*6989 FILLER_0_42_781
*6990 FILLER_0_42_793
*6991 FILLER_0_42_805
*6992 FILLER_0_42_811
*6993 FILLER_0_42_813
*6994 FILLER_0_42_821
*6995 FILLER_0_42_83
*6996 FILLER_0_42_85
*6997 FILLER_0_42_97
*6998 FILLER_0_43_105
*6999 FILLER_0_43_111
*7000 FILLER_0_43_113
*7001 FILLER_0_43_125
*7002 FILLER_0_43_137
*7003 FILLER_0_43_149
*7004 FILLER_0_43_15
*7005 FILLER_0_43_161
*7006 FILLER_0_43_167
*7007 FILLER_0_43_169
*7008 FILLER_0_43_181
*7009 FILLER_0_43_193
*7010 FILLER_0_43_205
*7011 FILLER_0_43_217
*7012 FILLER_0_43_223
*7013 FILLER_0_43_225
*7014 FILLER_0_43_237
*7015 FILLER_0_43_249
*7016 FILLER_0_43_261
*7017 FILLER_0_43_27
*7018 FILLER_0_43_273
*7019 FILLER_0_43_279
*7020 FILLER_0_43_281
*7021 FILLER_0_43_293
*7022 FILLER_0_43_3
*7023 FILLER_0_43_305
*7024 FILLER_0_43_317
*7025 FILLER_0_43_329
*7026 FILLER_0_43_335
*7027 FILLER_0_43_337
*7028 FILLER_0_43_349
*7029 FILLER_0_43_361
*7030 FILLER_0_43_373
*7031 FILLER_0_43_385
*7032 FILLER_0_43_39
*7033 FILLER_0_43_391
*7034 FILLER_0_43_393
*7035 FILLER_0_43_405
*7036 FILLER_0_43_417
*7037 FILLER_0_43_429
*7038 FILLER_0_43_441
*7039 FILLER_0_43_447
*7040 FILLER_0_43_449
*7041 FILLER_0_43_461
*7042 FILLER_0_43_473
*7043 FILLER_0_43_485
*7044 FILLER_0_43_497
*7045 FILLER_0_43_503
*7046 FILLER_0_43_505
*7047 FILLER_0_43_51
*7048 FILLER_0_43_517
*7049 FILLER_0_43_529
*7050 FILLER_0_43_541
*7051 FILLER_0_43_55
*7052 FILLER_0_43_553
*7053 FILLER_0_43_559
*7054 FILLER_0_43_561
*7055 FILLER_0_43_57
*7056 FILLER_0_43_573
*7057 FILLER_0_43_585
*7058 FILLER_0_43_597
*7059 FILLER_0_43_609
*7060 FILLER_0_43_615
*7061 FILLER_0_43_617
*7062 FILLER_0_43_629
*7063 FILLER_0_43_641
*7064 FILLER_0_43_653
*7065 FILLER_0_43_665
*7066 FILLER_0_43_671
*7067 FILLER_0_43_673
*7068 FILLER_0_43_685
*7069 FILLER_0_43_69
*7070 FILLER_0_43_697
*7071 FILLER_0_43_709
*7072 FILLER_0_43_721
*7073 FILLER_0_43_727
*7074 FILLER_0_43_729
*7075 FILLER_0_43_741
*7076 FILLER_0_43_753
*7077 FILLER_0_43_765
*7078 FILLER_0_43_777
*7079 FILLER_0_43_783
*7080 FILLER_0_43_785
*7081 FILLER_0_43_797
*7082 FILLER_0_43_809
*7083 FILLER_0_43_81
*7084 FILLER_0_43_821
*7085 FILLER_0_43_93
*7086 FILLER_0_44_109
*7087 FILLER_0_44_121
*7088 FILLER_0_44_133
*7089 FILLER_0_44_139
*7090 FILLER_0_44_141
*7091 FILLER_0_44_15
*7092 FILLER_0_44_153
*7093 FILLER_0_44_165
*7094 FILLER_0_44_177
*7095 FILLER_0_44_189
*7096 FILLER_0_44_195
*7097 FILLER_0_44_197
*7098 FILLER_0_44_209
*7099 FILLER_0_44_221
*7100 FILLER_0_44_233
*7101 FILLER_0_44_245
*7102 FILLER_0_44_251
*7103 FILLER_0_44_253
*7104 FILLER_0_44_265
*7105 FILLER_0_44_27
*7106 FILLER_0_44_277
*7107 FILLER_0_44_289
*7108 FILLER_0_44_29
*7109 FILLER_0_44_3
*7110 FILLER_0_44_301
*7111 FILLER_0_44_307
*7112 FILLER_0_44_309
*7113 FILLER_0_44_321
*7114 FILLER_0_44_333
*7115 FILLER_0_44_345
*7116 FILLER_0_44_357
*7117 FILLER_0_44_363
*7118 FILLER_0_44_365
*7119 FILLER_0_44_377
*7120 FILLER_0_44_389
*7121 FILLER_0_44_401
*7122 FILLER_0_44_41
*7123 FILLER_0_44_413
*7124 FILLER_0_44_419
*7125 FILLER_0_44_421
*7126 FILLER_0_44_433
*7127 FILLER_0_44_460
*7128 FILLER_0_44_472
*7129 FILLER_0_44_477
*7130 FILLER_0_44_489
*7131 FILLER_0_44_501
*7132 FILLER_0_44_513
*7133 FILLER_0_44_525
*7134 FILLER_0_44_53
*7135 FILLER_0_44_531
*7136 FILLER_0_44_533
*7137 FILLER_0_44_545
*7138 FILLER_0_44_557
*7139 FILLER_0_44_569
*7140 FILLER_0_44_581
*7141 FILLER_0_44_587
*7142 FILLER_0_44_589
*7143 FILLER_0_44_601
*7144 FILLER_0_44_613
*7145 FILLER_0_44_625
*7146 FILLER_0_44_637
*7147 FILLER_0_44_643
*7148 FILLER_0_44_645
*7149 FILLER_0_44_65
*7150 FILLER_0_44_657
*7151 FILLER_0_44_669
*7152 FILLER_0_44_681
*7153 FILLER_0_44_693
*7154 FILLER_0_44_699
*7155 FILLER_0_44_701
*7156 FILLER_0_44_713
*7157 FILLER_0_44_725
*7158 FILLER_0_44_737
*7159 FILLER_0_44_749
*7160 FILLER_0_44_755
*7161 FILLER_0_44_757
*7162 FILLER_0_44_769
*7163 FILLER_0_44_77
*7164 FILLER_0_44_781
*7165 FILLER_0_44_793
*7166 FILLER_0_44_805
*7167 FILLER_0_44_811
*7168 FILLER_0_44_813
*7169 FILLER_0_44_821
*7170 FILLER_0_44_83
*7171 FILLER_0_44_85
*7172 FILLER_0_44_97
*7173 FILLER_0_45_105
*7174 FILLER_0_45_111
*7175 FILLER_0_45_113
*7176 FILLER_0_45_125
*7177 FILLER_0_45_137
*7178 FILLER_0_45_149
*7179 FILLER_0_45_15
*7180 FILLER_0_45_161
*7181 FILLER_0_45_167
*7182 FILLER_0_45_169
*7183 FILLER_0_45_181
*7184 FILLER_0_45_193
*7185 FILLER_0_45_205
*7186 FILLER_0_45_217
*7187 FILLER_0_45_223
*7188 FILLER_0_45_225
*7189 FILLER_0_45_237
*7190 FILLER_0_45_249
*7191 FILLER_0_45_261
*7192 FILLER_0_45_27
*7193 FILLER_0_45_273
*7194 FILLER_0_45_279
*7195 FILLER_0_45_281
*7196 FILLER_0_45_293
*7197 FILLER_0_45_3
*7198 FILLER_0_45_305
*7199 FILLER_0_45_317
*7200 FILLER_0_45_329
*7201 FILLER_0_45_335
*7202 FILLER_0_45_337
*7203 FILLER_0_45_349
*7204 FILLER_0_45_361
*7205 FILLER_0_45_373
*7206 FILLER_0_45_385
*7207 FILLER_0_45_39
*7208 FILLER_0_45_391
*7209 FILLER_0_45_393
*7210 FILLER_0_45_405
*7211 FILLER_0_45_417
*7212 FILLER_0_45_429
*7213 FILLER_0_45_441
*7214 FILLER_0_45_445
*7215 FILLER_0_45_449
*7216 FILLER_0_45_461
*7217 FILLER_0_45_473
*7218 FILLER_0_45_485
*7219 FILLER_0_45_497
*7220 FILLER_0_45_503
*7221 FILLER_0_45_505
*7222 FILLER_0_45_51
*7223 FILLER_0_45_517
*7224 FILLER_0_45_529
*7225 FILLER_0_45_541
*7226 FILLER_0_45_548
*7227 FILLER_0_45_55
*7228 FILLER_0_45_561
*7229 FILLER_0_45_57
*7230 FILLER_0_45_573
*7231 FILLER_0_45_585
*7232 FILLER_0_45_597
*7233 FILLER_0_45_609
*7234 FILLER_0_45_615
*7235 FILLER_0_45_617
*7236 FILLER_0_45_629
*7237 FILLER_0_45_641
*7238 FILLER_0_45_653
*7239 FILLER_0_45_665
*7240 FILLER_0_45_671
*7241 FILLER_0_45_673
*7242 FILLER_0_45_685
*7243 FILLER_0_45_69
*7244 FILLER_0_45_697
*7245 FILLER_0_45_709
*7246 FILLER_0_45_721
*7247 FILLER_0_45_727
*7248 FILLER_0_45_729
*7249 FILLER_0_45_741
*7250 FILLER_0_45_753
*7251 FILLER_0_45_765
*7252 FILLER_0_45_777
*7253 FILLER_0_45_783
*7254 FILLER_0_45_785
*7255 FILLER_0_45_797
*7256 FILLER_0_45_809
*7257 FILLER_0_45_81
*7258 FILLER_0_45_821
*7259 FILLER_0_45_93
*7260 FILLER_0_46_109
*7261 FILLER_0_46_121
*7262 FILLER_0_46_133
*7263 FILLER_0_46_139
*7264 FILLER_0_46_141
*7265 FILLER_0_46_15
*7266 FILLER_0_46_153
*7267 FILLER_0_46_165
*7268 FILLER_0_46_177
*7269 FILLER_0_46_189
*7270 FILLER_0_46_195
*7271 FILLER_0_46_197
*7272 FILLER_0_46_209
*7273 FILLER_0_46_221
*7274 FILLER_0_46_233
*7275 FILLER_0_46_245
*7276 FILLER_0_46_251
*7277 FILLER_0_46_253
*7278 FILLER_0_46_265
*7279 FILLER_0_46_27
*7280 FILLER_0_46_277
*7281 FILLER_0_46_289
*7282 FILLER_0_46_29
*7283 FILLER_0_46_3
*7284 FILLER_0_46_301
*7285 FILLER_0_46_307
*7286 FILLER_0_46_309
*7287 FILLER_0_46_321
*7288 FILLER_0_46_333
*7289 FILLER_0_46_345
*7290 FILLER_0_46_357
*7291 FILLER_0_46_363
*7292 FILLER_0_46_365
*7293 FILLER_0_46_377
*7294 FILLER_0_46_389
*7295 FILLER_0_46_401
*7296 FILLER_0_46_41
*7297 FILLER_0_46_413
*7298 FILLER_0_46_419
*7299 FILLER_0_46_421
*7300 FILLER_0_46_429
*7301 FILLER_0_46_458
*7302 FILLER_0_46_470
*7303 FILLER_0_46_477
*7304 FILLER_0_46_489
*7305 FILLER_0_46_501
*7306 FILLER_0_46_513
*7307 FILLER_0_46_525
*7308 FILLER_0_46_53
*7309 FILLER_0_46_531
*7310 FILLER_0_46_556
*7311 FILLER_0_46_568
*7312 FILLER_0_46_580
*7313 FILLER_0_46_589
*7314 FILLER_0_46_601
*7315 FILLER_0_46_613
*7316 FILLER_0_46_625
*7317 FILLER_0_46_637
*7318 FILLER_0_46_643
*7319 FILLER_0_46_645
*7320 FILLER_0_46_65
*7321 FILLER_0_46_657
*7322 FILLER_0_46_669
*7323 FILLER_0_46_681
*7324 FILLER_0_46_693
*7325 FILLER_0_46_699
*7326 FILLER_0_46_701
*7327 FILLER_0_46_713
*7328 FILLER_0_46_725
*7329 FILLER_0_46_737
*7330 FILLER_0_46_749
*7331 FILLER_0_46_755
*7332 FILLER_0_46_757
*7333 FILLER_0_46_769
*7334 FILLER_0_46_77
*7335 FILLER_0_46_781
*7336 FILLER_0_46_793
*7337 FILLER_0_46_805
*7338 FILLER_0_46_811
*7339 FILLER_0_46_813
*7340 FILLER_0_46_821
*7341 FILLER_0_46_83
*7342 FILLER_0_46_85
*7343 FILLER_0_46_97
*7344 FILLER_0_47_105
*7345 FILLER_0_47_111
*7346 FILLER_0_47_113
*7347 FILLER_0_47_125
*7348 FILLER_0_47_137
*7349 FILLER_0_47_149
*7350 FILLER_0_47_15
*7351 FILLER_0_47_161
*7352 FILLER_0_47_167
*7353 FILLER_0_47_169
*7354 FILLER_0_47_181
*7355 FILLER_0_47_193
*7356 FILLER_0_47_205
*7357 FILLER_0_47_217
*7358 FILLER_0_47_223
*7359 FILLER_0_47_225
*7360 FILLER_0_47_237
*7361 FILLER_0_47_249
*7362 FILLER_0_47_261
*7363 FILLER_0_47_27
*7364 FILLER_0_47_273
*7365 FILLER_0_47_279
*7366 FILLER_0_47_281
*7367 FILLER_0_47_293
*7368 FILLER_0_47_3
*7369 FILLER_0_47_305
*7370 FILLER_0_47_317
*7371 FILLER_0_47_329
*7372 FILLER_0_47_335
*7373 FILLER_0_47_337
*7374 FILLER_0_47_349
*7375 FILLER_0_47_361
*7376 FILLER_0_47_373
*7377 FILLER_0_47_385
*7378 FILLER_0_47_39
*7379 FILLER_0_47_391
*7380 FILLER_0_47_393
*7381 FILLER_0_47_405
*7382 FILLER_0_47_417
*7383 FILLER_0_47_429
*7384 FILLER_0_47_441
*7385 FILLER_0_47_447
*7386 FILLER_0_47_465
*7387 FILLER_0_47_477
*7388 FILLER_0_47_489
*7389 FILLER_0_47_501
*7390 FILLER_0_47_505
*7391 FILLER_0_47_51
*7392 FILLER_0_47_517
*7393 FILLER_0_47_523
*7394 FILLER_0_47_531
*7395 FILLER_0_47_55
*7396 FILLER_0_47_561
*7397 FILLER_0_47_57
*7398 FILLER_0_47_573
*7399 FILLER_0_47_585
*7400 FILLER_0_47_597
*7401 FILLER_0_47_609
*7402 FILLER_0_47_615
*7403 FILLER_0_47_617
*7404 FILLER_0_47_629
*7405 FILLER_0_47_641
*7406 FILLER_0_47_653
*7407 FILLER_0_47_665
*7408 FILLER_0_47_671
*7409 FILLER_0_47_673
*7410 FILLER_0_47_685
*7411 FILLER_0_47_69
*7412 FILLER_0_47_697
*7413 FILLER_0_47_709
*7414 FILLER_0_47_721
*7415 FILLER_0_47_727
*7416 FILLER_0_47_729
*7417 FILLER_0_47_741
*7418 FILLER_0_47_753
*7419 FILLER_0_47_765
*7420 FILLER_0_47_777
*7421 FILLER_0_47_783
*7422 FILLER_0_47_785
*7423 FILLER_0_47_797
*7424 FILLER_0_47_809
*7425 FILLER_0_47_81
*7426 FILLER_0_47_821
*7427 FILLER_0_47_93
*7428 FILLER_0_48_109
*7429 FILLER_0_48_121
*7430 FILLER_0_48_133
*7431 FILLER_0_48_139
*7432 FILLER_0_48_141
*7433 FILLER_0_48_15
*7434 FILLER_0_48_153
*7435 FILLER_0_48_165
*7436 FILLER_0_48_177
*7437 FILLER_0_48_189
*7438 FILLER_0_48_195
*7439 FILLER_0_48_197
*7440 FILLER_0_48_209
*7441 FILLER_0_48_221
*7442 FILLER_0_48_233
*7443 FILLER_0_48_245
*7444 FILLER_0_48_251
*7445 FILLER_0_48_253
*7446 FILLER_0_48_265
*7447 FILLER_0_48_27
*7448 FILLER_0_48_277
*7449 FILLER_0_48_289
*7450 FILLER_0_48_29
*7451 FILLER_0_48_3
*7452 FILLER_0_48_301
*7453 FILLER_0_48_307
*7454 FILLER_0_48_309
*7455 FILLER_0_48_321
*7456 FILLER_0_48_333
*7457 FILLER_0_48_345
*7458 FILLER_0_48_357
*7459 FILLER_0_48_363
*7460 FILLER_0_48_365
*7461 FILLER_0_48_377
*7462 FILLER_0_48_389
*7463 FILLER_0_48_401
*7464 FILLER_0_48_41
*7465 FILLER_0_48_413
*7466 FILLER_0_48_419
*7467 FILLER_0_48_421
*7468 FILLER_0_48_433
*7469 FILLER_0_48_445
*7470 FILLER_0_48_457
*7471 FILLER_0_48_469
*7472 FILLER_0_48_475
*7473 FILLER_0_48_477
*7474 FILLER_0_48_485
*7475 FILLER_0_48_504
*7476 FILLER_0_48_514
*7477 FILLER_0_48_522
*7478 FILLER_0_48_53
*7479 FILLER_0_48_531
*7480 FILLER_0_48_533
*7481 FILLER_0_48_545
*7482 FILLER_0_48_553
*7483 FILLER_0_48_557
*7484 FILLER_0_48_569
*7485 FILLER_0_48_581
*7486 FILLER_0_48_587
*7487 FILLER_0_48_589
*7488 FILLER_0_48_599
*7489 FILLER_0_48_611
*7490 FILLER_0_48_623
*7491 FILLER_0_48_635
*7492 FILLER_0_48_643
*7493 FILLER_0_48_645
*7494 FILLER_0_48_65
*7495 FILLER_0_48_657
*7496 FILLER_0_48_669
*7497 FILLER_0_48_681
*7498 FILLER_0_48_693
*7499 FILLER_0_48_699
*7500 FILLER_0_48_701
*7501 FILLER_0_48_713
*7502 FILLER_0_48_725
*7503 FILLER_0_48_737
*7504 FILLER_0_48_749
*7505 FILLER_0_48_755
*7506 FILLER_0_48_757
*7507 FILLER_0_48_769
*7508 FILLER_0_48_77
*7509 FILLER_0_48_781
*7510 FILLER_0_48_793
*7511 FILLER_0_48_805
*7512 FILLER_0_48_811
*7513 FILLER_0_48_813
*7514 FILLER_0_48_821
*7515 FILLER_0_48_83
*7516 FILLER_0_48_85
*7517 FILLER_0_48_97
*7518 FILLER_0_49_105
*7519 FILLER_0_49_111
*7520 FILLER_0_49_113
*7521 FILLER_0_49_125
*7522 FILLER_0_49_137
*7523 FILLER_0_49_149
*7524 FILLER_0_49_15
*7525 FILLER_0_49_161
*7526 FILLER_0_49_167
*7527 FILLER_0_49_169
*7528 FILLER_0_49_181
*7529 FILLER_0_49_193
*7530 FILLER_0_49_205
*7531 FILLER_0_49_217
*7532 FILLER_0_49_223
*7533 FILLER_0_49_225
*7534 FILLER_0_49_237
*7535 FILLER_0_49_249
*7536 FILLER_0_49_261
*7537 FILLER_0_49_27
*7538 FILLER_0_49_273
*7539 FILLER_0_49_279
*7540 FILLER_0_49_281
*7541 FILLER_0_49_293
*7542 FILLER_0_49_3
*7543 FILLER_0_49_305
*7544 FILLER_0_49_317
*7545 FILLER_0_49_329
*7546 FILLER_0_49_335
*7547 FILLER_0_49_337
*7548 FILLER_0_49_349
*7549 FILLER_0_49_361
*7550 FILLER_0_49_373
*7551 FILLER_0_49_385
*7552 FILLER_0_49_39
*7553 FILLER_0_49_391
*7554 FILLER_0_49_393
*7555 FILLER_0_49_405
*7556 FILLER_0_49_430
*7557 FILLER_0_49_442
*7558 FILLER_0_49_449
*7559 FILLER_0_49_461
*7560 FILLER_0_49_473
*7561 FILLER_0_49_482
*7562 FILLER_0_49_503
*7563 FILLER_0_49_51
*7564 FILLER_0_49_511
*7565 FILLER_0_49_523
*7566 FILLER_0_49_531
*7567 FILLER_0_49_535
*7568 FILLER_0_49_547
*7569 FILLER_0_49_55
*7570 FILLER_0_49_551
*7571 FILLER_0_49_558
*7572 FILLER_0_49_561
*7573 FILLER_0_49_57
*7574 FILLER_0_49_573
*7575 FILLER_0_49_585
*7576 FILLER_0_49_597
*7577 FILLER_0_49_609
*7578 FILLER_0_49_615
*7579 FILLER_0_49_617
*7580 FILLER_0_49_629
*7581 FILLER_0_49_641
*7582 FILLER_0_49_653
*7583 FILLER_0_49_665
*7584 FILLER_0_49_671
*7585 FILLER_0_49_673
*7586 FILLER_0_49_685
*7587 FILLER_0_49_69
*7588 FILLER_0_49_697
*7589 FILLER_0_49_709
*7590 FILLER_0_49_721
*7591 FILLER_0_49_727
*7592 FILLER_0_49_729
*7593 FILLER_0_49_741
*7594 FILLER_0_49_753
*7595 FILLER_0_49_765
*7596 FILLER_0_49_777
*7597 FILLER_0_49_783
*7598 FILLER_0_49_785
*7599 FILLER_0_49_797
*7600 FILLER_0_49_809
*7601 FILLER_0_49_81
*7602 FILLER_0_49_817
*7603 FILLER_0_49_93
*7604 FILLER_0_4_109
*7605 FILLER_0_4_121
*7606 FILLER_0_4_133
*7607 FILLER_0_4_139
*7608 FILLER_0_4_141
*7609 FILLER_0_4_15
*7610 FILLER_0_4_153
*7611 FILLER_0_4_165
*7612 FILLER_0_4_177
*7613 FILLER_0_4_189
*7614 FILLER_0_4_195
*7615 FILLER_0_4_197
*7616 FILLER_0_4_209
*7617 FILLER_0_4_221
*7618 FILLER_0_4_233
*7619 FILLER_0_4_245
*7620 FILLER_0_4_251
*7621 FILLER_0_4_253
*7622 FILLER_0_4_265
*7623 FILLER_0_4_27
*7624 FILLER_0_4_277
*7625 FILLER_0_4_289
*7626 FILLER_0_4_29
*7627 FILLER_0_4_3
*7628 FILLER_0_4_301
*7629 FILLER_0_4_307
*7630 FILLER_0_4_309
*7631 FILLER_0_4_321
*7632 FILLER_0_4_333
*7633 FILLER_0_4_345
*7634 FILLER_0_4_357
*7635 FILLER_0_4_363
*7636 FILLER_0_4_365
*7637 FILLER_0_4_377
*7638 FILLER_0_4_389
*7639 FILLER_0_4_401
*7640 FILLER_0_4_41
*7641 FILLER_0_4_413
*7642 FILLER_0_4_419
*7643 FILLER_0_4_421
*7644 FILLER_0_4_433
*7645 FILLER_0_4_445
*7646 FILLER_0_4_457
*7647 FILLER_0_4_469
*7648 FILLER_0_4_475
*7649 FILLER_0_4_477
*7650 FILLER_0_4_489
*7651 FILLER_0_4_501
*7652 FILLER_0_4_513
*7653 FILLER_0_4_525
*7654 FILLER_0_4_53
*7655 FILLER_0_4_531
*7656 FILLER_0_4_533
*7657 FILLER_0_4_545
*7658 FILLER_0_4_557
*7659 FILLER_0_4_569
*7660 FILLER_0_4_581
*7661 FILLER_0_4_587
*7662 FILLER_0_4_589
*7663 FILLER_0_4_601
*7664 FILLER_0_4_613
*7665 FILLER_0_4_625
*7666 FILLER_0_4_637
*7667 FILLER_0_4_643
*7668 FILLER_0_4_645
*7669 FILLER_0_4_65
*7670 FILLER_0_4_657
*7671 FILLER_0_4_669
*7672 FILLER_0_4_681
*7673 FILLER_0_4_693
*7674 FILLER_0_4_699
*7675 FILLER_0_4_701
*7676 FILLER_0_4_713
*7677 FILLER_0_4_725
*7678 FILLER_0_4_737
*7679 FILLER_0_4_749
*7680 FILLER_0_4_755
*7681 FILLER_0_4_757
*7682 FILLER_0_4_769
*7683 FILLER_0_4_77
*7684 FILLER_0_4_781
*7685 FILLER_0_4_793
*7686 FILLER_0_4_805
*7687 FILLER_0_4_811
*7688 FILLER_0_4_813
*7689 FILLER_0_4_821
*7690 FILLER_0_4_83
*7691 FILLER_0_4_85
*7692 FILLER_0_4_97
*7693 FILLER_0_50_109
*7694 FILLER_0_50_121
*7695 FILLER_0_50_133
*7696 FILLER_0_50_139
*7697 FILLER_0_50_141
*7698 FILLER_0_50_15
*7699 FILLER_0_50_153
*7700 FILLER_0_50_165
*7701 FILLER_0_50_177
*7702 FILLER_0_50_189
*7703 FILLER_0_50_195
*7704 FILLER_0_50_197
*7705 FILLER_0_50_209
*7706 FILLER_0_50_221
*7707 FILLER_0_50_233
*7708 FILLER_0_50_245
*7709 FILLER_0_50_251
*7710 FILLER_0_50_253
*7711 FILLER_0_50_265
*7712 FILLER_0_50_27
*7713 FILLER_0_50_277
*7714 FILLER_0_50_289
*7715 FILLER_0_50_29
*7716 FILLER_0_50_3
*7717 FILLER_0_50_301
*7718 FILLER_0_50_307
*7719 FILLER_0_50_309
*7720 FILLER_0_50_321
*7721 FILLER_0_50_333
*7722 FILLER_0_50_345
*7723 FILLER_0_50_357
*7724 FILLER_0_50_363
*7725 FILLER_0_50_365
*7726 FILLER_0_50_377
*7727 FILLER_0_50_389
*7728 FILLER_0_50_401
*7729 FILLER_0_50_41
*7730 FILLER_0_50_413
*7731 FILLER_0_50_419
*7732 FILLER_0_50_421
*7733 FILLER_0_50_433
*7734 FILLER_0_50_445
*7735 FILLER_0_50_457
*7736 FILLER_0_50_469
*7737 FILLER_0_50_475
*7738 FILLER_0_50_477
*7739 FILLER_0_50_481
*7740 FILLER_0_50_504
*7741 FILLER_0_50_516
*7742 FILLER_0_50_528
*7743 FILLER_0_50_53
*7744 FILLER_0_50_533
*7745 FILLER_0_50_545
*7746 FILLER_0_50_557
*7747 FILLER_0_50_569
*7748 FILLER_0_50_581
*7749 FILLER_0_50_587
*7750 FILLER_0_50_589
*7751 FILLER_0_50_601
*7752 FILLER_0_50_613
*7753 FILLER_0_50_625
*7754 FILLER_0_50_637
*7755 FILLER_0_50_643
*7756 FILLER_0_50_645
*7757 FILLER_0_50_65
*7758 FILLER_0_50_657
*7759 FILLER_0_50_669
*7760 FILLER_0_50_681
*7761 FILLER_0_50_693
*7762 FILLER_0_50_699
*7763 FILLER_0_50_701
*7764 FILLER_0_50_713
*7765 FILLER_0_50_725
*7766 FILLER_0_50_737
*7767 FILLER_0_50_749
*7768 FILLER_0_50_755
*7769 FILLER_0_50_757
*7770 FILLER_0_50_769
*7771 FILLER_0_50_77
*7772 FILLER_0_50_781
*7773 FILLER_0_50_793
*7774 FILLER_0_50_805
*7775 FILLER_0_50_811
*7776 FILLER_0_50_813
*7777 FILLER_0_50_821
*7778 FILLER_0_50_83
*7779 FILLER_0_50_85
*7780 FILLER_0_50_97
*7781 FILLER_0_51_105
*7782 FILLER_0_51_111
*7783 FILLER_0_51_113
*7784 FILLER_0_51_125
*7785 FILLER_0_51_137
*7786 FILLER_0_51_149
*7787 FILLER_0_51_15
*7788 FILLER_0_51_161
*7789 FILLER_0_51_167
*7790 FILLER_0_51_169
*7791 FILLER_0_51_181
*7792 FILLER_0_51_193
*7793 FILLER_0_51_205
*7794 FILLER_0_51_217
*7795 FILLER_0_51_223
*7796 FILLER_0_51_225
*7797 FILLER_0_51_237
*7798 FILLER_0_51_249
*7799 FILLER_0_51_261
*7800 FILLER_0_51_27
*7801 FILLER_0_51_273
*7802 FILLER_0_51_279
*7803 FILLER_0_51_281
*7804 FILLER_0_51_293
*7805 FILLER_0_51_3
*7806 FILLER_0_51_305
*7807 FILLER_0_51_317
*7808 FILLER_0_51_329
*7809 FILLER_0_51_335
*7810 FILLER_0_51_337
*7811 FILLER_0_51_349
*7812 FILLER_0_51_361
*7813 FILLER_0_51_373
*7814 FILLER_0_51_385
*7815 FILLER_0_51_39
*7816 FILLER_0_51_391
*7817 FILLER_0_51_393
*7818 FILLER_0_51_405
*7819 FILLER_0_51_417
*7820 FILLER_0_51_428
*7821 FILLER_0_51_435
*7822 FILLER_0_51_446
*7823 FILLER_0_51_449
*7824 FILLER_0_51_461
*7825 FILLER_0_51_467
*7826 FILLER_0_51_475
*7827 FILLER_0_51_481
*7828 FILLER_0_51_496
*7829 FILLER_0_51_505
*7830 FILLER_0_51_51
*7831 FILLER_0_51_517
*7832 FILLER_0_51_529
*7833 FILLER_0_51_541
*7834 FILLER_0_51_55
*7835 FILLER_0_51_553
*7836 FILLER_0_51_559
*7837 FILLER_0_51_564
*7838 FILLER_0_51_57
*7839 FILLER_0_51_576
*7840 FILLER_0_51_588
*7841 FILLER_0_51_600
*7842 FILLER_0_51_612
*7843 FILLER_0_51_617
*7844 FILLER_0_51_629
*7845 FILLER_0_51_641
*7846 FILLER_0_51_653
*7847 FILLER_0_51_665
*7848 FILLER_0_51_671
*7849 FILLER_0_51_673
*7850 FILLER_0_51_685
*7851 FILLER_0_51_69
*7852 FILLER_0_51_697
*7853 FILLER_0_51_709
*7854 FILLER_0_51_721
*7855 FILLER_0_51_727
*7856 FILLER_0_51_729
*7857 FILLER_0_51_741
*7858 FILLER_0_51_753
*7859 FILLER_0_51_765
*7860 FILLER_0_51_777
*7861 FILLER_0_51_783
*7862 FILLER_0_51_785
*7863 FILLER_0_51_797
*7864 FILLER_0_51_809
*7865 FILLER_0_51_81
*7866 FILLER_0_51_821
*7867 FILLER_0_51_93
*7868 FILLER_0_52_109
*7869 FILLER_0_52_121
*7870 FILLER_0_52_133
*7871 FILLER_0_52_139
*7872 FILLER_0_52_141
*7873 FILLER_0_52_15
*7874 FILLER_0_52_153
*7875 FILLER_0_52_165
*7876 FILLER_0_52_177
*7877 FILLER_0_52_189
*7878 FILLER_0_52_195
*7879 FILLER_0_52_197
*7880 FILLER_0_52_209
*7881 FILLER_0_52_221
*7882 FILLER_0_52_233
*7883 FILLER_0_52_245
*7884 FILLER_0_52_251
*7885 FILLER_0_52_253
*7886 FILLER_0_52_265
*7887 FILLER_0_52_27
*7888 FILLER_0_52_277
*7889 FILLER_0_52_289
*7890 FILLER_0_52_29
*7891 FILLER_0_52_3
*7892 FILLER_0_52_301
*7893 FILLER_0_52_307
*7894 FILLER_0_52_309
*7895 FILLER_0_52_321
*7896 FILLER_0_52_333
*7897 FILLER_0_52_345
*7898 FILLER_0_52_357
*7899 FILLER_0_52_363
*7900 FILLER_0_52_365
*7901 FILLER_0_52_377
*7902 FILLER_0_52_389
*7903 FILLER_0_52_401
*7904 FILLER_0_52_41
*7905 FILLER_0_52_413
*7906 FILLER_0_52_419
*7907 FILLER_0_52_453
*7908 FILLER_0_52_465
*7909 FILLER_0_52_473
*7910 FILLER_0_52_477
*7911 FILLER_0_52_489
*7912 FILLER_0_52_501
*7913 FILLER_0_52_513
*7914 FILLER_0_52_525
*7915 FILLER_0_52_53
*7916 FILLER_0_52_530
*7917 FILLER_0_52_533
*7918 FILLER_0_52_545
*7919 FILLER_0_52_576
*7920 FILLER_0_52_589
*7921 FILLER_0_52_601
*7922 FILLER_0_52_613
*7923 FILLER_0_52_625
*7924 FILLER_0_52_637
*7925 FILLER_0_52_643
*7926 FILLER_0_52_645
*7927 FILLER_0_52_65
*7928 FILLER_0_52_657
*7929 FILLER_0_52_669
*7930 FILLER_0_52_681
*7931 FILLER_0_52_693
*7932 FILLER_0_52_699
*7933 FILLER_0_52_701
*7934 FILLER_0_52_713
*7935 FILLER_0_52_725
*7936 FILLER_0_52_737
*7937 FILLER_0_52_749
*7938 FILLER_0_52_755
*7939 FILLER_0_52_757
*7940 FILLER_0_52_769
*7941 FILLER_0_52_77
*7942 FILLER_0_52_781
*7943 FILLER_0_52_793
*7944 FILLER_0_52_805
*7945 FILLER_0_52_811
*7946 FILLER_0_52_813
*7947 FILLER_0_52_821
*7948 FILLER_0_52_83
*7949 FILLER_0_52_85
*7950 FILLER_0_52_97
*7951 FILLER_0_53_105
*7952 FILLER_0_53_111
*7953 FILLER_0_53_113
*7954 FILLER_0_53_125
*7955 FILLER_0_53_137
*7956 FILLER_0_53_149
*7957 FILLER_0_53_15
*7958 FILLER_0_53_161
*7959 FILLER_0_53_167
*7960 FILLER_0_53_169
*7961 FILLER_0_53_181
*7962 FILLER_0_53_193
*7963 FILLER_0_53_205
*7964 FILLER_0_53_217
*7965 FILLER_0_53_223
*7966 FILLER_0_53_225
*7967 FILLER_0_53_237
*7968 FILLER_0_53_249
*7969 FILLER_0_53_261
*7970 FILLER_0_53_27
*7971 FILLER_0_53_273
*7972 FILLER_0_53_279
*7973 FILLER_0_53_281
*7974 FILLER_0_53_293
*7975 FILLER_0_53_3
*7976 FILLER_0_53_305
*7977 FILLER_0_53_317
*7978 FILLER_0_53_329
*7979 FILLER_0_53_335
*7980 FILLER_0_53_337
*7981 FILLER_0_53_349
*7982 FILLER_0_53_361
*7983 FILLER_0_53_373
*7984 FILLER_0_53_385
*7985 FILLER_0_53_39
*7986 FILLER_0_53_391
*7987 FILLER_0_53_393
*7988 FILLER_0_53_405
*7989 FILLER_0_53_417
*7990 FILLER_0_53_429
*7991 FILLER_0_53_440
*7992 FILLER_0_53_446
*7993 FILLER_0_53_449
*7994 FILLER_0_53_457
*7995 FILLER_0_53_478
*7996 FILLER_0_53_502
*7997 FILLER_0_53_505
*7998 FILLER_0_53_51
*7999 FILLER_0_53_510
*8000 FILLER_0_53_522
*8001 FILLER_0_53_544
*8002 FILLER_0_53_548
*8003 FILLER_0_53_55
*8004 FILLER_0_53_555
*8005 FILLER_0_53_559
*8006 FILLER_0_53_561
*8007 FILLER_0_53_57
*8008 FILLER_0_53_573
*8009 FILLER_0_53_585
*8010 FILLER_0_53_597
*8011 FILLER_0_53_609
*8012 FILLER_0_53_615
*8013 FILLER_0_53_617
*8014 FILLER_0_53_629
*8015 FILLER_0_53_641
*8016 FILLER_0_53_653
*8017 FILLER_0_53_665
*8018 FILLER_0_53_671
*8019 FILLER_0_53_673
*8020 FILLER_0_53_685
*8021 FILLER_0_53_69
*8022 FILLER_0_53_697
*8023 FILLER_0_53_709
*8024 FILLER_0_53_721
*8025 FILLER_0_53_727
*8026 FILLER_0_53_729
*8027 FILLER_0_53_741
*8028 FILLER_0_53_753
*8029 FILLER_0_53_765
*8030 FILLER_0_53_777
*8031 FILLER_0_53_783
*8032 FILLER_0_53_785
*8033 FILLER_0_53_797
*8034 FILLER_0_53_809
*8035 FILLER_0_53_81
*8036 FILLER_0_53_821
*8037 FILLER_0_53_93
*8038 FILLER_0_54_109
*8039 FILLER_0_54_121
*8040 FILLER_0_54_133
*8041 FILLER_0_54_139
*8042 FILLER_0_54_141
*8043 FILLER_0_54_15
*8044 FILLER_0_54_153
*8045 FILLER_0_54_165
*8046 FILLER_0_54_177
*8047 FILLER_0_54_189
*8048 FILLER_0_54_195
*8049 FILLER_0_54_197
*8050 FILLER_0_54_209
*8051 FILLER_0_54_221
*8052 FILLER_0_54_233
*8053 FILLER_0_54_245
*8054 FILLER_0_54_251
*8055 FILLER_0_54_253
*8056 FILLER_0_54_265
*8057 FILLER_0_54_27
*8058 FILLER_0_54_277
*8059 FILLER_0_54_289
*8060 FILLER_0_54_29
*8061 FILLER_0_54_3
*8062 FILLER_0_54_301
*8063 FILLER_0_54_307
*8064 FILLER_0_54_309
*8065 FILLER_0_54_321
*8066 FILLER_0_54_333
*8067 FILLER_0_54_345
*8068 FILLER_0_54_357
*8069 FILLER_0_54_363
*8070 FILLER_0_54_365
*8071 FILLER_0_54_377
*8072 FILLER_0_54_389
*8073 FILLER_0_54_401
*8074 FILLER_0_54_407
*8075 FILLER_0_54_41
*8076 FILLER_0_54_419
*8077 FILLER_0_54_421
*8078 FILLER_0_54_433
*8079 FILLER_0_54_437
*8080 FILLER_0_54_447
*8081 FILLER_0_54_459
*8082 FILLER_0_54_471
*8083 FILLER_0_54_475
*8084 FILLER_0_54_477
*8085 FILLER_0_54_489
*8086 FILLER_0_54_501
*8087 FILLER_0_54_507
*8088 FILLER_0_54_519
*8089 FILLER_0_54_527
*8090 FILLER_0_54_53
*8091 FILLER_0_54_533
*8092 FILLER_0_54_549
*8093 FILLER_0_54_561
*8094 FILLER_0_54_573
*8095 FILLER_0_54_578
*8096 FILLER_0_54_586
*8097 FILLER_0_54_589
*8098 FILLER_0_54_601
*8099 FILLER_0_54_613
*8100 FILLER_0_54_625
*8101 FILLER_0_54_637
*8102 FILLER_0_54_643
*8103 FILLER_0_54_645
*8104 FILLER_0_54_65
*8105 FILLER_0_54_657
*8106 FILLER_0_54_669
*8107 FILLER_0_54_681
*8108 FILLER_0_54_693
*8109 FILLER_0_54_699
*8110 FILLER_0_54_701
*8111 FILLER_0_54_713
*8112 FILLER_0_54_725
*8113 FILLER_0_54_737
*8114 FILLER_0_54_749
*8115 FILLER_0_54_755
*8116 FILLER_0_54_757
*8117 FILLER_0_54_769
*8118 FILLER_0_54_77
*8119 FILLER_0_54_781
*8120 FILLER_0_54_793
*8121 FILLER_0_54_805
*8122 FILLER_0_54_811
*8123 FILLER_0_54_813
*8124 FILLER_0_54_821
*8125 FILLER_0_54_83
*8126 FILLER_0_54_85
*8127 FILLER_0_54_97
*8128 FILLER_0_55_105
*8129 FILLER_0_55_111
*8130 FILLER_0_55_113
*8131 FILLER_0_55_125
*8132 FILLER_0_55_137
*8133 FILLER_0_55_149
*8134 FILLER_0_55_15
*8135 FILLER_0_55_161
*8136 FILLER_0_55_167
*8137 FILLER_0_55_169
*8138 FILLER_0_55_181
*8139 FILLER_0_55_193
*8140 FILLER_0_55_205
*8141 FILLER_0_55_217
*8142 FILLER_0_55_223
*8143 FILLER_0_55_225
*8144 FILLER_0_55_237
*8145 FILLER_0_55_249
*8146 FILLER_0_55_261
*8147 FILLER_0_55_27
*8148 FILLER_0_55_273
*8149 FILLER_0_55_279
*8150 FILLER_0_55_281
*8151 FILLER_0_55_293
*8152 FILLER_0_55_3
*8153 FILLER_0_55_305
*8154 FILLER_0_55_317
*8155 FILLER_0_55_329
*8156 FILLER_0_55_335
*8157 FILLER_0_55_337
*8158 FILLER_0_55_349
*8159 FILLER_0_55_361
*8160 FILLER_0_55_373
*8161 FILLER_0_55_385
*8162 FILLER_0_55_39
*8163 FILLER_0_55_391
*8164 FILLER_0_55_393
*8165 FILLER_0_55_420
*8166 FILLER_0_55_432
*8167 FILLER_0_55_444
*8168 FILLER_0_55_449
*8169 FILLER_0_55_461
*8170 FILLER_0_55_473
*8171 FILLER_0_55_485
*8172 FILLER_0_55_500
*8173 FILLER_0_55_51
*8174 FILLER_0_55_510
*8175 FILLER_0_55_516
*8176 FILLER_0_55_528
*8177 FILLER_0_55_541
*8178 FILLER_0_55_55
*8179 FILLER_0_55_553
*8180 FILLER_0_55_559
*8181 FILLER_0_55_561
*8182 FILLER_0_55_57
*8183 FILLER_0_55_586
*8184 FILLER_0_55_598
*8185 FILLER_0_55_610
*8186 FILLER_0_55_617
*8187 FILLER_0_55_629
*8188 FILLER_0_55_641
*8189 FILLER_0_55_653
*8190 FILLER_0_55_665
*8191 FILLER_0_55_671
*8192 FILLER_0_55_673
*8193 FILLER_0_55_685
*8194 FILLER_0_55_69
*8195 FILLER_0_55_697
*8196 FILLER_0_55_709
*8197 FILLER_0_55_721
*8198 FILLER_0_55_727
*8199 FILLER_0_55_729
*8200 FILLER_0_55_741
*8201 FILLER_0_55_753
*8202 FILLER_0_55_765
*8203 FILLER_0_55_777
*8204 FILLER_0_55_783
*8205 FILLER_0_55_785
*8206 FILLER_0_55_797
*8207 FILLER_0_55_809
*8208 FILLER_0_55_81
*8209 FILLER_0_55_821
*8210 FILLER_0_55_93
*8211 FILLER_0_56_109
*8212 FILLER_0_56_121
*8213 FILLER_0_56_133
*8214 FILLER_0_56_139
*8215 FILLER_0_56_141
*8216 FILLER_0_56_15
*8217 FILLER_0_56_153
*8218 FILLER_0_56_165
*8219 FILLER_0_56_177
*8220 FILLER_0_56_189
*8221 FILLER_0_56_195
*8222 FILLER_0_56_197
*8223 FILLER_0_56_209
*8224 FILLER_0_56_221
*8225 FILLER_0_56_233
*8226 FILLER_0_56_245
*8227 FILLER_0_56_251
*8228 FILLER_0_56_253
*8229 FILLER_0_56_265
*8230 FILLER_0_56_27
*8231 FILLER_0_56_277
*8232 FILLER_0_56_289
*8233 FILLER_0_56_29
*8234 FILLER_0_56_3
*8235 FILLER_0_56_301
*8236 FILLER_0_56_307
*8237 FILLER_0_56_309
*8238 FILLER_0_56_321
*8239 FILLER_0_56_333
*8240 FILLER_0_56_345
*8241 FILLER_0_56_357
*8242 FILLER_0_56_363
*8243 FILLER_0_56_365
*8244 FILLER_0_56_377
*8245 FILLER_0_56_389
*8246 FILLER_0_56_401
*8247 FILLER_0_56_405
*8248 FILLER_0_56_409
*8249 FILLER_0_56_41
*8250 FILLER_0_56_417
*8251 FILLER_0_56_421
*8252 FILLER_0_56_433
*8253 FILLER_0_56_445
*8254 FILLER_0_56_457
*8255 FILLER_0_56_469
*8256 FILLER_0_56_475
*8257 FILLER_0_56_477
*8258 FILLER_0_56_489
*8259 FILLER_0_56_501
*8260 FILLER_0_56_513
*8261 FILLER_0_56_525
*8262 FILLER_0_56_53
*8263 FILLER_0_56_531
*8264 FILLER_0_56_539
*8265 FILLER_0_56_551
*8266 FILLER_0_56_563
*8267 FILLER_0_56_575
*8268 FILLER_0_56_587
*8269 FILLER_0_56_589
*8270 FILLER_0_56_601
*8271 FILLER_0_56_613
*8272 FILLER_0_56_625
*8273 FILLER_0_56_637
*8274 FILLER_0_56_643
*8275 FILLER_0_56_645
*8276 FILLER_0_56_65
*8277 FILLER_0_56_657
*8278 FILLER_0_56_669
*8279 FILLER_0_56_681
*8280 FILLER_0_56_693
*8281 FILLER_0_56_699
*8282 FILLER_0_56_701
*8283 FILLER_0_56_713
*8284 FILLER_0_56_725
*8285 FILLER_0_56_737
*8286 FILLER_0_56_749
*8287 FILLER_0_56_755
*8288 FILLER_0_56_757
*8289 FILLER_0_56_769
*8290 FILLER_0_56_77
*8291 FILLER_0_56_781
*8292 FILLER_0_56_793
*8293 FILLER_0_56_805
*8294 FILLER_0_56_811
*8295 FILLER_0_56_813
*8296 FILLER_0_56_821
*8297 FILLER_0_56_83
*8298 FILLER_0_56_85
*8299 FILLER_0_56_97
*8300 FILLER_0_57_105
*8301 FILLER_0_57_111
*8302 FILLER_0_57_113
*8303 FILLER_0_57_125
*8304 FILLER_0_57_137
*8305 FILLER_0_57_149
*8306 FILLER_0_57_15
*8307 FILLER_0_57_161
*8308 FILLER_0_57_167
*8309 FILLER_0_57_169
*8310 FILLER_0_57_181
*8311 FILLER_0_57_193
*8312 FILLER_0_57_205
*8313 FILLER_0_57_217
*8314 FILLER_0_57_223
*8315 FILLER_0_57_225
*8316 FILLER_0_57_237
*8317 FILLER_0_57_249
*8318 FILLER_0_57_261
*8319 FILLER_0_57_27
*8320 FILLER_0_57_273
*8321 FILLER_0_57_279
*8322 FILLER_0_57_281
*8323 FILLER_0_57_293
*8324 FILLER_0_57_3
*8325 FILLER_0_57_305
*8326 FILLER_0_57_317
*8327 FILLER_0_57_329
*8328 FILLER_0_57_335
*8329 FILLER_0_57_337
*8330 FILLER_0_57_349
*8331 FILLER_0_57_361
*8332 FILLER_0_57_373
*8333 FILLER_0_57_385
*8334 FILLER_0_57_39
*8335 FILLER_0_57_391
*8336 FILLER_0_57_393
*8337 FILLER_0_57_405
*8338 FILLER_0_57_417
*8339 FILLER_0_57_429
*8340 FILLER_0_57_441
*8341 FILLER_0_57_447
*8342 FILLER_0_57_449
*8343 FILLER_0_57_461
*8344 FILLER_0_57_469
*8345 FILLER_0_57_482
*8346 FILLER_0_57_494
*8347 FILLER_0_57_502
*8348 FILLER_0_57_505
*8349 FILLER_0_57_51
*8350 FILLER_0_57_517
*8351 FILLER_0_57_529
*8352 FILLER_0_57_541
*8353 FILLER_0_57_55
*8354 FILLER_0_57_553
*8355 FILLER_0_57_559
*8356 FILLER_0_57_561
*8357 FILLER_0_57_57
*8358 FILLER_0_57_573
*8359 FILLER_0_57_585
*8360 FILLER_0_57_597
*8361 FILLER_0_57_609
*8362 FILLER_0_57_615
*8363 FILLER_0_57_617
*8364 FILLER_0_57_629
*8365 FILLER_0_57_641
*8366 FILLER_0_57_653
*8367 FILLER_0_57_665
*8368 FILLER_0_57_671
*8369 FILLER_0_57_673
*8370 FILLER_0_57_685
*8371 FILLER_0_57_69
*8372 FILLER_0_57_697
*8373 FILLER_0_57_709
*8374 FILLER_0_57_721
*8375 FILLER_0_57_727
*8376 FILLER_0_57_729
*8377 FILLER_0_57_741
*8378 FILLER_0_57_753
*8379 FILLER_0_57_765
*8380 FILLER_0_57_777
*8381 FILLER_0_57_783
*8382 FILLER_0_57_785
*8383 FILLER_0_57_797
*8384 FILLER_0_57_809
*8385 FILLER_0_57_81
*8386 FILLER_0_57_821
*8387 FILLER_0_57_93
*8388 FILLER_0_58_109
*8389 FILLER_0_58_121
*8390 FILLER_0_58_133
*8391 FILLER_0_58_139
*8392 FILLER_0_58_141
*8393 FILLER_0_58_15
*8394 FILLER_0_58_153
*8395 FILLER_0_58_165
*8396 FILLER_0_58_177
*8397 FILLER_0_58_189
*8398 FILLER_0_58_195
*8399 FILLER_0_58_197
*8400 FILLER_0_58_209
*8401 FILLER_0_58_221
*8402 FILLER_0_58_233
*8403 FILLER_0_58_245
*8404 FILLER_0_58_251
*8405 FILLER_0_58_253
*8406 FILLER_0_58_265
*8407 FILLER_0_58_27
*8408 FILLER_0_58_277
*8409 FILLER_0_58_289
*8410 FILLER_0_58_29
*8411 FILLER_0_58_3
*8412 FILLER_0_58_301
*8413 FILLER_0_58_307
*8414 FILLER_0_58_309
*8415 FILLER_0_58_321
*8416 FILLER_0_58_333
*8417 FILLER_0_58_345
*8418 FILLER_0_58_357
*8419 FILLER_0_58_363
*8420 FILLER_0_58_365
*8421 FILLER_0_58_377
*8422 FILLER_0_58_389
*8423 FILLER_0_58_401
*8424 FILLER_0_58_41
*8425 FILLER_0_58_413
*8426 FILLER_0_58_419
*8427 FILLER_0_58_428
*8428 FILLER_0_58_440
*8429 FILLER_0_58_452
*8430 FILLER_0_58_460
*8431 FILLER_0_58_475
*8432 FILLER_0_58_487
*8433 FILLER_0_58_499
*8434 FILLER_0_58_511
*8435 FILLER_0_58_523
*8436 FILLER_0_58_53
*8437 FILLER_0_58_531
*8438 FILLER_0_58_533
*8439 FILLER_0_58_545
*8440 FILLER_0_58_557
*8441 FILLER_0_58_569
*8442 FILLER_0_58_581
*8443 FILLER_0_58_587
*8444 FILLER_0_58_589
*8445 FILLER_0_58_601
*8446 FILLER_0_58_613
*8447 FILLER_0_58_625
*8448 FILLER_0_58_637
*8449 FILLER_0_58_643
*8450 FILLER_0_58_645
*8451 FILLER_0_58_65
*8452 FILLER_0_58_657
*8453 FILLER_0_58_669
*8454 FILLER_0_58_681
*8455 FILLER_0_58_693
*8456 FILLER_0_58_699
*8457 FILLER_0_58_701
*8458 FILLER_0_58_713
*8459 FILLER_0_58_725
*8460 FILLER_0_58_737
*8461 FILLER_0_58_749
*8462 FILLER_0_58_755
*8463 FILLER_0_58_757
*8464 FILLER_0_58_769
*8465 FILLER_0_58_77
*8466 FILLER_0_58_781
*8467 FILLER_0_58_793
*8468 FILLER_0_58_805
*8469 FILLER_0_58_811
*8470 FILLER_0_58_813
*8471 FILLER_0_58_821
*8472 FILLER_0_58_83
*8473 FILLER_0_58_85
*8474 FILLER_0_58_97
*8475 FILLER_0_59_105
*8476 FILLER_0_59_111
*8477 FILLER_0_59_113
*8478 FILLER_0_59_125
*8479 FILLER_0_59_137
*8480 FILLER_0_59_149
*8481 FILLER_0_59_161
*8482 FILLER_0_59_167
*8483 FILLER_0_59_169
*8484 FILLER_0_59_181
*8485 FILLER_0_59_193
*8486 FILLER_0_59_205
*8487 FILLER_0_59_21
*8488 FILLER_0_59_217
*8489 FILLER_0_59_223
*8490 FILLER_0_59_225
*8491 FILLER_0_59_237
*8492 FILLER_0_59_249
*8493 FILLER_0_59_261
*8494 FILLER_0_59_273
*8495 FILLER_0_59_279
*8496 FILLER_0_59_281
*8497 FILLER_0_59_293
*8498 FILLER_0_59_305
*8499 FILLER_0_59_317
*8500 FILLER_0_59_329
*8501 FILLER_0_59_33
*8502 FILLER_0_59_335
*8503 FILLER_0_59_337
*8504 FILLER_0_59_349
*8505 FILLER_0_59_361
*8506 FILLER_0_59_373
*8507 FILLER_0_59_385
*8508 FILLER_0_59_391
*8509 FILLER_0_59_393
*8510 FILLER_0_59_428
*8511 FILLER_0_59_440
*8512 FILLER_0_59_45
*8513 FILLER_0_59_491
*8514 FILLER_0_59_503
*8515 FILLER_0_59_505
*8516 FILLER_0_59_517
*8517 FILLER_0_59_529
*8518 FILLER_0_59_53
*8519 FILLER_0_59_541
*8520 FILLER_0_59_550
*8521 FILLER_0_59_558
*8522 FILLER_0_59_569
*8523 FILLER_0_59_57
*8524 FILLER_0_59_581
*8525 FILLER_0_59_593
*8526 FILLER_0_59_605
*8527 FILLER_0_59_613
*8528 FILLER_0_59_617
*8529 FILLER_0_59_629
*8530 FILLER_0_59_641
*8531 FILLER_0_59_653
*8532 FILLER_0_59_665
*8533 FILLER_0_59_671
*8534 FILLER_0_59_673
*8535 FILLER_0_59_685
*8536 FILLER_0_59_69
*8537 FILLER_0_59_697
*8538 FILLER_0_59_709
*8539 FILLER_0_59_721
*8540 FILLER_0_59_727
*8541 FILLER_0_59_729
*8542 FILLER_0_59_741
*8543 FILLER_0_59_753
*8544 FILLER_0_59_765
*8545 FILLER_0_59_777
*8546 FILLER_0_59_783
*8547 FILLER_0_59_785
*8548 FILLER_0_59_797
*8549 FILLER_0_59_809
*8550 FILLER_0_59_81
*8551 FILLER_0_59_821
*8552 FILLER_0_59_9
*8553 FILLER_0_59_93
*8554 FILLER_0_5_105
*8555 FILLER_0_5_111
*8556 FILLER_0_5_113
*8557 FILLER_0_5_125
*8558 FILLER_0_5_137
*8559 FILLER_0_5_149
*8560 FILLER_0_5_15
*8561 FILLER_0_5_161
*8562 FILLER_0_5_167
*8563 FILLER_0_5_169
*8564 FILLER_0_5_181
*8565 FILLER_0_5_193
*8566 FILLER_0_5_205
*8567 FILLER_0_5_217
*8568 FILLER_0_5_223
*8569 FILLER_0_5_225
*8570 FILLER_0_5_237
*8571 FILLER_0_5_249
*8572 FILLER_0_5_261
*8573 FILLER_0_5_27
*8574 FILLER_0_5_273
*8575 FILLER_0_5_279
*8576 FILLER_0_5_281
*8577 FILLER_0_5_293
*8578 FILLER_0_5_3
*8579 FILLER_0_5_305
*8580 FILLER_0_5_317
*8581 FILLER_0_5_329
*8582 FILLER_0_5_335
*8583 FILLER_0_5_337
*8584 FILLER_0_5_349
*8585 FILLER_0_5_361
*8586 FILLER_0_5_373
*8587 FILLER_0_5_385
*8588 FILLER_0_5_39
*8589 FILLER_0_5_391
*8590 FILLER_0_5_393
*8591 FILLER_0_5_405
*8592 FILLER_0_5_417
*8593 FILLER_0_5_429
*8594 FILLER_0_5_441
*8595 FILLER_0_5_447
*8596 FILLER_0_5_449
*8597 FILLER_0_5_461
*8598 FILLER_0_5_473
*8599 FILLER_0_5_485
*8600 FILLER_0_5_497
*8601 FILLER_0_5_503
*8602 FILLER_0_5_505
*8603 FILLER_0_5_51
*8604 FILLER_0_5_517
*8605 FILLER_0_5_529
*8606 FILLER_0_5_541
*8607 FILLER_0_5_55
*8608 FILLER_0_5_553
*8609 FILLER_0_5_559
*8610 FILLER_0_5_561
*8611 FILLER_0_5_57
*8612 FILLER_0_5_573
*8613 FILLER_0_5_585
*8614 FILLER_0_5_597
*8615 FILLER_0_5_609
*8616 FILLER_0_5_615
*8617 FILLER_0_5_617
*8618 FILLER_0_5_629
*8619 FILLER_0_5_641
*8620 FILLER_0_5_653
*8621 FILLER_0_5_665
*8622 FILLER_0_5_671
*8623 FILLER_0_5_673
*8624 FILLER_0_5_685
*8625 FILLER_0_5_69
*8626 FILLER_0_5_697
*8627 FILLER_0_5_709
*8628 FILLER_0_5_721
*8629 FILLER_0_5_727
*8630 FILLER_0_5_729
*8631 FILLER_0_5_741
*8632 FILLER_0_5_753
*8633 FILLER_0_5_765
*8634 FILLER_0_5_777
*8635 FILLER_0_5_783
*8636 FILLER_0_5_785
*8637 FILLER_0_5_797
*8638 FILLER_0_5_809
*8639 FILLER_0_5_81
*8640 FILLER_0_5_821
*8641 FILLER_0_5_93
*8642 FILLER_0_60_109
*8643 FILLER_0_60_121
*8644 FILLER_0_60_133
*8645 FILLER_0_60_139
*8646 FILLER_0_60_141
*8647 FILLER_0_60_15
*8648 FILLER_0_60_153
*8649 FILLER_0_60_165
*8650 FILLER_0_60_177
*8651 FILLER_0_60_189
*8652 FILLER_0_60_195
*8653 FILLER_0_60_197
*8654 FILLER_0_60_209
*8655 FILLER_0_60_221
*8656 FILLER_0_60_233
*8657 FILLER_0_60_245
*8658 FILLER_0_60_251
*8659 FILLER_0_60_253
*8660 FILLER_0_60_265
*8661 FILLER_0_60_27
*8662 FILLER_0_60_277
*8663 FILLER_0_60_289
*8664 FILLER_0_60_29
*8665 FILLER_0_60_3
*8666 FILLER_0_60_301
*8667 FILLER_0_60_307
*8668 FILLER_0_60_309
*8669 FILLER_0_60_321
*8670 FILLER_0_60_333
*8671 FILLER_0_60_345
*8672 FILLER_0_60_357
*8673 FILLER_0_60_363
*8674 FILLER_0_60_365
*8675 FILLER_0_60_377
*8676 FILLER_0_60_389
*8677 FILLER_0_60_401
*8678 FILLER_0_60_41
*8679 FILLER_0_60_413
*8680 FILLER_0_60_419
*8681 FILLER_0_60_424
*8682 FILLER_0_60_437
*8683 FILLER_0_60_444
*8684 FILLER_0_60_456
*8685 FILLER_0_60_460
*8686 FILLER_0_60_467
*8687 FILLER_0_60_475
*8688 FILLER_0_60_500
*8689 FILLER_0_60_512
*8690 FILLER_0_60_524
*8691 FILLER_0_60_53
*8692 FILLER_0_60_533
*8693 FILLER_0_60_537
*8694 FILLER_0_60_543
*8695 FILLER_0_60_574
*8696 FILLER_0_60_586
*8697 FILLER_0_60_589
*8698 FILLER_0_60_601
*8699 FILLER_0_60_613
*8700 FILLER_0_60_625
*8701 FILLER_0_60_637
*8702 FILLER_0_60_643
*8703 FILLER_0_60_645
*8704 FILLER_0_60_65
*8705 FILLER_0_60_657
*8706 FILLER_0_60_669
*8707 FILLER_0_60_681
*8708 FILLER_0_60_693
*8709 FILLER_0_60_699
*8710 FILLER_0_60_701
*8711 FILLER_0_60_713
*8712 FILLER_0_60_725
*8713 FILLER_0_60_737
*8714 FILLER_0_60_749
*8715 FILLER_0_60_755
*8716 FILLER_0_60_757
*8717 FILLER_0_60_769
*8718 FILLER_0_60_77
*8719 FILLER_0_60_781
*8720 FILLER_0_60_793
*8721 FILLER_0_60_805
*8722 FILLER_0_60_811
*8723 FILLER_0_60_813
*8724 FILLER_0_60_821
*8725 FILLER_0_60_83
*8726 FILLER_0_60_85
*8727 FILLER_0_60_97
*8728 FILLER_0_61_105
*8729 FILLER_0_61_111
*8730 FILLER_0_61_113
*8731 FILLER_0_61_125
*8732 FILLER_0_61_137
*8733 FILLER_0_61_149
*8734 FILLER_0_61_15
*8735 FILLER_0_61_161
*8736 FILLER_0_61_167
*8737 FILLER_0_61_169
*8738 FILLER_0_61_181
*8739 FILLER_0_61_193
*8740 FILLER_0_61_205
*8741 FILLER_0_61_217
*8742 FILLER_0_61_223
*8743 FILLER_0_61_225
*8744 FILLER_0_61_237
*8745 FILLER_0_61_249
*8746 FILLER_0_61_261
*8747 FILLER_0_61_27
*8748 FILLER_0_61_273
*8749 FILLER_0_61_279
*8750 FILLER_0_61_281
*8751 FILLER_0_61_293
*8752 FILLER_0_61_3
*8753 FILLER_0_61_305
*8754 FILLER_0_61_317
*8755 FILLER_0_61_329
*8756 FILLER_0_61_335
*8757 FILLER_0_61_337
*8758 FILLER_0_61_349
*8759 FILLER_0_61_361
*8760 FILLER_0_61_373
*8761 FILLER_0_61_385
*8762 FILLER_0_61_39
*8763 FILLER_0_61_391
*8764 FILLER_0_61_393
*8765 FILLER_0_61_405
*8766 FILLER_0_61_409
*8767 FILLER_0_61_433
*8768 FILLER_0_61_445
*8769 FILLER_0_61_449
*8770 FILLER_0_61_461
*8771 FILLER_0_61_473
*8772 FILLER_0_61_485
*8773 FILLER_0_61_51
*8774 FILLER_0_61_511
*8775 FILLER_0_61_519
*8776 FILLER_0_61_541
*8777 FILLER_0_61_549
*8778 FILLER_0_61_55
*8779 FILLER_0_61_557
*8780 FILLER_0_61_561
*8781 FILLER_0_61_57
*8782 FILLER_0_61_590
*8783 FILLER_0_61_602
*8784 FILLER_0_61_614
*8785 FILLER_0_61_617
*8786 FILLER_0_61_629
*8787 FILLER_0_61_641
*8788 FILLER_0_61_653
*8789 FILLER_0_61_665
*8790 FILLER_0_61_671
*8791 FILLER_0_61_673
*8792 FILLER_0_61_685
*8793 FILLER_0_61_69
*8794 FILLER_0_61_697
*8795 FILLER_0_61_709
*8796 FILLER_0_61_721
*8797 FILLER_0_61_727
*8798 FILLER_0_61_729
*8799 FILLER_0_61_741
*8800 FILLER_0_61_753
*8801 FILLER_0_61_765
*8802 FILLER_0_61_777
*8803 FILLER_0_61_783
*8804 FILLER_0_61_785
*8805 FILLER_0_61_797
*8806 FILLER_0_61_809
*8807 FILLER_0_61_81
*8808 FILLER_0_61_821
*8809 FILLER_0_61_93
*8810 FILLER_0_62_109
*8811 FILLER_0_62_121
*8812 FILLER_0_62_133
*8813 FILLER_0_62_139
*8814 FILLER_0_62_141
*8815 FILLER_0_62_15
*8816 FILLER_0_62_153
*8817 FILLER_0_62_165
*8818 FILLER_0_62_177
*8819 FILLER_0_62_189
*8820 FILLER_0_62_195
*8821 FILLER_0_62_197
*8822 FILLER_0_62_209
*8823 FILLER_0_62_221
*8824 FILLER_0_62_233
*8825 FILLER_0_62_245
*8826 FILLER_0_62_251
*8827 FILLER_0_62_253
*8828 FILLER_0_62_265
*8829 FILLER_0_62_27
*8830 FILLER_0_62_277
*8831 FILLER_0_62_289
*8832 FILLER_0_62_29
*8833 FILLER_0_62_3
*8834 FILLER_0_62_301
*8835 FILLER_0_62_307
*8836 FILLER_0_62_309
*8837 FILLER_0_62_321
*8838 FILLER_0_62_333
*8839 FILLER_0_62_345
*8840 FILLER_0_62_357
*8841 FILLER_0_62_363
*8842 FILLER_0_62_365
*8843 FILLER_0_62_377
*8844 FILLER_0_62_389
*8845 FILLER_0_62_401
*8846 FILLER_0_62_41
*8847 FILLER_0_62_413
*8848 FILLER_0_62_419
*8849 FILLER_0_62_421
*8850 FILLER_0_62_425
*8851 FILLER_0_62_437
*8852 FILLER_0_62_449
*8853 FILLER_0_62_461
*8854 FILLER_0_62_473
*8855 FILLER_0_62_477
*8856 FILLER_0_62_489
*8857 FILLER_0_62_501
*8858 FILLER_0_62_513
*8859 FILLER_0_62_525
*8860 FILLER_0_62_53
*8861 FILLER_0_62_531
*8862 FILLER_0_62_547
*8863 FILLER_0_62_559
*8864 FILLER_0_62_563
*8865 FILLER_0_62_567
*8866 FILLER_0_62_575
*8867 FILLER_0_62_581
*8868 FILLER_0_62_587
*8869 FILLER_0_62_589
*8870 FILLER_0_62_601
*8871 FILLER_0_62_613
*8872 FILLER_0_62_625
*8873 FILLER_0_62_637
*8874 FILLER_0_62_643
*8875 FILLER_0_62_645
*8876 FILLER_0_62_65
*8877 FILLER_0_62_657
*8878 FILLER_0_62_669
*8879 FILLER_0_62_681
*8880 FILLER_0_62_693
*8881 FILLER_0_62_699
*8882 FILLER_0_62_701
*8883 FILLER_0_62_713
*8884 FILLER_0_62_725
*8885 FILLER_0_62_737
*8886 FILLER_0_62_749
*8887 FILLER_0_62_755
*8888 FILLER_0_62_757
*8889 FILLER_0_62_769
*8890 FILLER_0_62_77
*8891 FILLER_0_62_781
*8892 FILLER_0_62_793
*8893 FILLER_0_62_805
*8894 FILLER_0_62_811
*8895 FILLER_0_62_813
*8896 FILLER_0_62_821
*8897 FILLER_0_62_83
*8898 FILLER_0_62_85
*8899 FILLER_0_62_97
*8900 FILLER_0_63_105
*8901 FILLER_0_63_111
*8902 FILLER_0_63_113
*8903 FILLER_0_63_125
*8904 FILLER_0_63_137
*8905 FILLER_0_63_149
*8906 FILLER_0_63_15
*8907 FILLER_0_63_161
*8908 FILLER_0_63_167
*8909 FILLER_0_63_169
*8910 FILLER_0_63_181
*8911 FILLER_0_63_193
*8912 FILLER_0_63_205
*8913 FILLER_0_63_217
*8914 FILLER_0_63_223
*8915 FILLER_0_63_225
*8916 FILLER_0_63_237
*8917 FILLER_0_63_249
*8918 FILLER_0_63_261
*8919 FILLER_0_63_27
*8920 FILLER_0_63_273
*8921 FILLER_0_63_279
*8922 FILLER_0_63_281
*8923 FILLER_0_63_293
*8924 FILLER_0_63_3
*8925 FILLER_0_63_305
*8926 FILLER_0_63_317
*8927 FILLER_0_63_329
*8928 FILLER_0_63_335
*8929 FILLER_0_63_337
*8930 FILLER_0_63_349
*8931 FILLER_0_63_361
*8932 FILLER_0_63_373
*8933 FILLER_0_63_385
*8934 FILLER_0_63_39
*8935 FILLER_0_63_391
*8936 FILLER_0_63_393
*8937 FILLER_0_63_405
*8938 FILLER_0_63_417
*8939 FILLER_0_63_429
*8940 FILLER_0_63_441
*8941 FILLER_0_63_447
*8942 FILLER_0_63_449
*8943 FILLER_0_63_461
*8944 FILLER_0_63_473
*8945 FILLER_0_63_485
*8946 FILLER_0_63_497
*8947 FILLER_0_63_503
*8948 FILLER_0_63_505
*8949 FILLER_0_63_51
*8950 FILLER_0_63_517
*8951 FILLER_0_63_529
*8952 FILLER_0_63_535
*8953 FILLER_0_63_547
*8954 FILLER_0_63_55
*8955 FILLER_0_63_559
*8956 FILLER_0_63_564
*8957 FILLER_0_63_57
*8958 FILLER_0_63_576
*8959 FILLER_0_63_588
*8960 FILLER_0_63_600
*8961 FILLER_0_63_612
*8962 FILLER_0_63_617
*8963 FILLER_0_63_629
*8964 FILLER_0_63_641
*8965 FILLER_0_63_653
*8966 FILLER_0_63_665
*8967 FILLER_0_63_671
*8968 FILLER_0_63_673
*8969 FILLER_0_63_685
*8970 FILLER_0_63_69
*8971 FILLER_0_63_697
*8972 FILLER_0_63_709
*8973 FILLER_0_63_721
*8974 FILLER_0_63_727
*8975 FILLER_0_63_729
*8976 FILLER_0_63_741
*8977 FILLER_0_63_753
*8978 FILLER_0_63_765
*8979 FILLER_0_63_777
*8980 FILLER_0_63_783
*8981 FILLER_0_63_785
*8982 FILLER_0_63_797
*8983 FILLER_0_63_809
*8984 FILLER_0_63_81
*8985 FILLER_0_63_821
*8986 FILLER_0_63_93
*8987 FILLER_0_64_109
*8988 FILLER_0_64_121
*8989 FILLER_0_64_133
*8990 FILLER_0_64_139
*8991 FILLER_0_64_141
*8992 FILLER_0_64_15
*8993 FILLER_0_64_153
*8994 FILLER_0_64_165
*8995 FILLER_0_64_177
*8996 FILLER_0_64_189
*8997 FILLER_0_64_195
*8998 FILLER_0_64_197
*8999 FILLER_0_64_209
*9000 FILLER_0_64_221
*9001 FILLER_0_64_233
*9002 FILLER_0_64_245
*9003 FILLER_0_64_251
*9004 FILLER_0_64_253
*9005 FILLER_0_64_265
*9006 FILLER_0_64_27
*9007 FILLER_0_64_277
*9008 FILLER_0_64_289
*9009 FILLER_0_64_29
*9010 FILLER_0_64_3
*9011 FILLER_0_64_301
*9012 FILLER_0_64_307
*9013 FILLER_0_64_309
*9014 FILLER_0_64_321
*9015 FILLER_0_64_333
*9016 FILLER_0_64_345
*9017 FILLER_0_64_357
*9018 FILLER_0_64_363
*9019 FILLER_0_64_365
*9020 FILLER_0_64_377
*9021 FILLER_0_64_389
*9022 FILLER_0_64_401
*9023 FILLER_0_64_41
*9024 FILLER_0_64_413
*9025 FILLER_0_64_419
*9026 FILLER_0_64_421
*9027 FILLER_0_64_433
*9028 FILLER_0_64_445
*9029 FILLER_0_64_452
*9030 FILLER_0_64_464
*9031 FILLER_0_64_497
*9032 FILLER_0_64_509
*9033 FILLER_0_64_521
*9034 FILLER_0_64_529
*9035 FILLER_0_64_53
*9036 FILLER_0_64_533
*9037 FILLER_0_64_545
*9038 FILLER_0_64_557
*9039 FILLER_0_64_569
*9040 FILLER_0_64_581
*9041 FILLER_0_64_587
*9042 FILLER_0_64_589
*9043 FILLER_0_64_601
*9044 FILLER_0_64_613
*9045 FILLER_0_64_625
*9046 FILLER_0_64_637
*9047 FILLER_0_64_643
*9048 FILLER_0_64_645
*9049 FILLER_0_64_65
*9050 FILLER_0_64_657
*9051 FILLER_0_64_669
*9052 FILLER_0_64_681
*9053 FILLER_0_64_693
*9054 FILLER_0_64_699
*9055 FILLER_0_64_701
*9056 FILLER_0_64_713
*9057 FILLER_0_64_725
*9058 FILLER_0_64_737
*9059 FILLER_0_64_749
*9060 FILLER_0_64_755
*9061 FILLER_0_64_757
*9062 FILLER_0_64_769
*9063 FILLER_0_64_77
*9064 FILLER_0_64_781
*9065 FILLER_0_64_793
*9066 FILLER_0_64_805
*9067 FILLER_0_64_811
*9068 FILLER_0_64_813
*9069 FILLER_0_64_821
*9070 FILLER_0_64_83
*9071 FILLER_0_64_85
*9072 FILLER_0_64_97
*9073 FILLER_0_65_105
*9074 FILLER_0_65_111
*9075 FILLER_0_65_113
*9076 FILLER_0_65_125
*9077 FILLER_0_65_137
*9078 FILLER_0_65_149
*9079 FILLER_0_65_15
*9080 FILLER_0_65_161
*9081 FILLER_0_65_167
*9082 FILLER_0_65_169
*9083 FILLER_0_65_181
*9084 FILLER_0_65_193
*9085 FILLER_0_65_205
*9086 FILLER_0_65_217
*9087 FILLER_0_65_223
*9088 FILLER_0_65_225
*9089 FILLER_0_65_237
*9090 FILLER_0_65_249
*9091 FILLER_0_65_261
*9092 FILLER_0_65_27
*9093 FILLER_0_65_273
*9094 FILLER_0_65_279
*9095 FILLER_0_65_281
*9096 FILLER_0_65_293
*9097 FILLER_0_65_3
*9098 FILLER_0_65_305
*9099 FILLER_0_65_317
*9100 FILLER_0_65_329
*9101 FILLER_0_65_335
*9102 FILLER_0_65_337
*9103 FILLER_0_65_349
*9104 FILLER_0_65_361
*9105 FILLER_0_65_373
*9106 FILLER_0_65_385
*9107 FILLER_0_65_39
*9108 FILLER_0_65_391
*9109 FILLER_0_65_393
*9110 FILLER_0_65_405
*9111 FILLER_0_65_417
*9112 FILLER_0_65_425
*9113 FILLER_0_65_433
*9114 FILLER_0_65_445
*9115 FILLER_0_65_449
*9116 FILLER_0_65_461
*9117 FILLER_0_65_473
*9118 FILLER_0_65_485
*9119 FILLER_0_65_498
*9120 FILLER_0_65_505
*9121 FILLER_0_65_51
*9122 FILLER_0_65_517
*9123 FILLER_0_65_529
*9124 FILLER_0_65_541
*9125 FILLER_0_65_55
*9126 FILLER_0_65_553
*9127 FILLER_0_65_559
*9128 FILLER_0_65_561
*9129 FILLER_0_65_57
*9130 FILLER_0_65_573
*9131 FILLER_0_65_585
*9132 FILLER_0_65_597
*9133 FILLER_0_65_609
*9134 FILLER_0_65_615
*9135 FILLER_0_65_617
*9136 FILLER_0_65_629
*9137 FILLER_0_65_641
*9138 FILLER_0_65_653
*9139 FILLER_0_65_665
*9140 FILLER_0_65_671
*9141 FILLER_0_65_673
*9142 FILLER_0_65_685
*9143 FILLER_0_65_69
*9144 FILLER_0_65_697
*9145 FILLER_0_65_709
*9146 FILLER_0_65_721
*9147 FILLER_0_65_727
*9148 FILLER_0_65_729
*9149 FILLER_0_65_741
*9150 FILLER_0_65_753
*9151 FILLER_0_65_765
*9152 FILLER_0_65_777
*9153 FILLER_0_65_783
*9154 FILLER_0_65_785
*9155 FILLER_0_65_797
*9156 FILLER_0_65_809
*9157 FILLER_0_65_81
*9158 FILLER_0_65_821
*9159 FILLER_0_65_93
*9160 FILLER_0_66_109
*9161 FILLER_0_66_121
*9162 FILLER_0_66_133
*9163 FILLER_0_66_139
*9164 FILLER_0_66_141
*9165 FILLER_0_66_15
*9166 FILLER_0_66_153
*9167 FILLER_0_66_165
*9168 FILLER_0_66_177
*9169 FILLER_0_66_189
*9170 FILLER_0_66_195
*9171 FILLER_0_66_197
*9172 FILLER_0_66_209
*9173 FILLER_0_66_221
*9174 FILLER_0_66_233
*9175 FILLER_0_66_245
*9176 FILLER_0_66_251
*9177 FILLER_0_66_253
*9178 FILLER_0_66_265
*9179 FILLER_0_66_27
*9180 FILLER_0_66_277
*9181 FILLER_0_66_289
*9182 FILLER_0_66_29
*9183 FILLER_0_66_3
*9184 FILLER_0_66_301
*9185 FILLER_0_66_307
*9186 FILLER_0_66_309
*9187 FILLER_0_66_321
*9188 FILLER_0_66_333
*9189 FILLER_0_66_345
*9190 FILLER_0_66_357
*9191 FILLER_0_66_363
*9192 FILLER_0_66_365
*9193 FILLER_0_66_377
*9194 FILLER_0_66_389
*9195 FILLER_0_66_401
*9196 FILLER_0_66_41
*9197 FILLER_0_66_413
*9198 FILLER_0_66_419
*9199 FILLER_0_66_455
*9200 FILLER_0_66_467
*9201 FILLER_0_66_475
*9202 FILLER_0_66_477
*9203 FILLER_0_66_503
*9204 FILLER_0_66_515
*9205 FILLER_0_66_527
*9206 FILLER_0_66_53
*9207 FILLER_0_66_531
*9208 FILLER_0_66_533
*9209 FILLER_0_66_545
*9210 FILLER_0_66_557
*9211 FILLER_0_66_569
*9212 FILLER_0_66_581
*9213 FILLER_0_66_587
*9214 FILLER_0_66_589
*9215 FILLER_0_66_601
*9216 FILLER_0_66_613
*9217 FILLER_0_66_625
*9218 FILLER_0_66_637
*9219 FILLER_0_66_643
*9220 FILLER_0_66_645
*9221 FILLER_0_66_65
*9222 FILLER_0_66_657
*9223 FILLER_0_66_669
*9224 FILLER_0_66_681
*9225 FILLER_0_66_693
*9226 FILLER_0_66_699
*9227 FILLER_0_66_701
*9228 FILLER_0_66_713
*9229 FILLER_0_66_725
*9230 FILLER_0_66_737
*9231 FILLER_0_66_749
*9232 FILLER_0_66_755
*9233 FILLER_0_66_757
*9234 FILLER_0_66_769
*9235 FILLER_0_66_77
*9236 FILLER_0_66_781
*9237 FILLER_0_66_793
*9238 FILLER_0_66_805
*9239 FILLER_0_66_811
*9240 FILLER_0_66_813
*9241 FILLER_0_66_821
*9242 FILLER_0_66_83
*9243 FILLER_0_66_85
*9244 FILLER_0_66_97
*9245 FILLER_0_67_105
*9246 FILLER_0_67_111
*9247 FILLER_0_67_113
*9248 FILLER_0_67_125
*9249 FILLER_0_67_137
*9250 FILLER_0_67_149
*9251 FILLER_0_67_15
*9252 FILLER_0_67_161
*9253 FILLER_0_67_167
*9254 FILLER_0_67_169
*9255 FILLER_0_67_181
*9256 FILLER_0_67_193
*9257 FILLER_0_67_205
*9258 FILLER_0_67_217
*9259 FILLER_0_67_223
*9260 FILLER_0_67_225
*9261 FILLER_0_67_237
*9262 FILLER_0_67_249
*9263 FILLER_0_67_261
*9264 FILLER_0_67_27
*9265 FILLER_0_67_273
*9266 FILLER_0_67_279
*9267 FILLER_0_67_281
*9268 FILLER_0_67_293
*9269 FILLER_0_67_3
*9270 FILLER_0_67_305
*9271 FILLER_0_67_317
*9272 FILLER_0_67_329
*9273 FILLER_0_67_335
*9274 FILLER_0_67_337
*9275 FILLER_0_67_349
*9276 FILLER_0_67_361
*9277 FILLER_0_67_373
*9278 FILLER_0_67_385
*9279 FILLER_0_67_39
*9280 FILLER_0_67_391
*9281 FILLER_0_67_393
*9282 FILLER_0_67_405
*9283 FILLER_0_67_417
*9284 FILLER_0_67_429
*9285 FILLER_0_67_446
*9286 FILLER_0_67_449
*9287 FILLER_0_67_461
*9288 FILLER_0_67_473
*9289 FILLER_0_67_481
*9290 FILLER_0_67_487
*9291 FILLER_0_67_493
*9292 FILLER_0_67_505
*9293 FILLER_0_67_51
*9294 FILLER_0_67_517
*9295 FILLER_0_67_529
*9296 FILLER_0_67_541
*9297 FILLER_0_67_55
*9298 FILLER_0_67_553
*9299 FILLER_0_67_559
*9300 FILLER_0_67_561
*9301 FILLER_0_67_57
*9302 FILLER_0_67_573
*9303 FILLER_0_67_579
*9304 FILLER_0_67_591
*9305 FILLER_0_67_603
*9306 FILLER_0_67_615
*9307 FILLER_0_67_617
*9308 FILLER_0_67_629
*9309 FILLER_0_67_641
*9310 FILLER_0_67_653
*9311 FILLER_0_67_665
*9312 FILLER_0_67_671
*9313 FILLER_0_67_673
*9314 FILLER_0_67_685
*9315 FILLER_0_67_69
*9316 FILLER_0_67_697
*9317 FILLER_0_67_709
*9318 FILLER_0_67_721
*9319 FILLER_0_67_727
*9320 FILLER_0_67_729
*9321 FILLER_0_67_741
*9322 FILLER_0_67_753
*9323 FILLER_0_67_765
*9324 FILLER_0_67_777
*9325 FILLER_0_67_783
*9326 FILLER_0_67_785
*9327 FILLER_0_67_797
*9328 FILLER_0_67_809
*9329 FILLER_0_67_81
*9330 FILLER_0_67_821
*9331 FILLER_0_67_93
*9332 FILLER_0_68_109
*9333 FILLER_0_68_121
*9334 FILLER_0_68_133
*9335 FILLER_0_68_139
*9336 FILLER_0_68_141
*9337 FILLER_0_68_15
*9338 FILLER_0_68_153
*9339 FILLER_0_68_165
*9340 FILLER_0_68_177
*9341 FILLER_0_68_189
*9342 FILLER_0_68_195
*9343 FILLER_0_68_197
*9344 FILLER_0_68_209
*9345 FILLER_0_68_221
*9346 FILLER_0_68_233
*9347 FILLER_0_68_245
*9348 FILLER_0_68_251
*9349 FILLER_0_68_253
*9350 FILLER_0_68_265
*9351 FILLER_0_68_27
*9352 FILLER_0_68_277
*9353 FILLER_0_68_289
*9354 FILLER_0_68_29
*9355 FILLER_0_68_3
*9356 FILLER_0_68_301
*9357 FILLER_0_68_307
*9358 FILLER_0_68_309
*9359 FILLER_0_68_321
*9360 FILLER_0_68_333
*9361 FILLER_0_68_345
*9362 FILLER_0_68_357
*9363 FILLER_0_68_363
*9364 FILLER_0_68_365
*9365 FILLER_0_68_377
*9366 FILLER_0_68_389
*9367 FILLER_0_68_401
*9368 FILLER_0_68_41
*9369 FILLER_0_68_413
*9370 FILLER_0_68_419
*9371 FILLER_0_68_421
*9372 FILLER_0_68_433
*9373 FILLER_0_68_443
*9374 FILLER_0_68_455
*9375 FILLER_0_68_467
*9376 FILLER_0_68_475
*9377 FILLER_0_68_493
*9378 FILLER_0_68_524
*9379 FILLER_0_68_53
*9380 FILLER_0_68_533
*9381 FILLER_0_68_544
*9382 FILLER_0_68_553
*9383 FILLER_0_68_587
*9384 FILLER_0_68_589
*9385 FILLER_0_68_601
*9386 FILLER_0_68_613
*9387 FILLER_0_68_625
*9388 FILLER_0_68_637
*9389 FILLER_0_68_643
*9390 FILLER_0_68_645
*9391 FILLER_0_68_65
*9392 FILLER_0_68_657
*9393 FILLER_0_68_669
*9394 FILLER_0_68_681
*9395 FILLER_0_68_693
*9396 FILLER_0_68_699
*9397 FILLER_0_68_701
*9398 FILLER_0_68_713
*9399 FILLER_0_68_725
*9400 FILLER_0_68_737
*9401 FILLER_0_68_749
*9402 FILLER_0_68_755
*9403 FILLER_0_68_757
*9404 FILLER_0_68_769
*9405 FILLER_0_68_77
*9406 FILLER_0_68_781
*9407 FILLER_0_68_793
*9408 FILLER_0_68_805
*9409 FILLER_0_68_811
*9410 FILLER_0_68_813
*9411 FILLER_0_68_821
*9412 FILLER_0_68_83
*9413 FILLER_0_68_85
*9414 FILLER_0_68_97
*9415 FILLER_0_69_105
*9416 FILLER_0_69_111
*9417 FILLER_0_69_113
*9418 FILLER_0_69_125
*9419 FILLER_0_69_137
*9420 FILLER_0_69_149
*9421 FILLER_0_69_15
*9422 FILLER_0_69_161
*9423 FILLER_0_69_167
*9424 FILLER_0_69_169
*9425 FILLER_0_69_181
*9426 FILLER_0_69_193
*9427 FILLER_0_69_205
*9428 FILLER_0_69_217
*9429 FILLER_0_69_223
*9430 FILLER_0_69_225
*9431 FILLER_0_69_237
*9432 FILLER_0_69_249
*9433 FILLER_0_69_261
*9434 FILLER_0_69_27
*9435 FILLER_0_69_273
*9436 FILLER_0_69_279
*9437 FILLER_0_69_281
*9438 FILLER_0_69_293
*9439 FILLER_0_69_3
*9440 FILLER_0_69_305
*9441 FILLER_0_69_317
*9442 FILLER_0_69_329
*9443 FILLER_0_69_335
*9444 FILLER_0_69_337
*9445 FILLER_0_69_349
*9446 FILLER_0_69_361
*9447 FILLER_0_69_373
*9448 FILLER_0_69_385
*9449 FILLER_0_69_39
*9450 FILLER_0_69_391
*9451 FILLER_0_69_396
*9452 FILLER_0_69_403
*9453 FILLER_0_69_415
*9454 FILLER_0_69_421
*9455 FILLER_0_69_443
*9456 FILLER_0_69_447
*9457 FILLER_0_69_457
*9458 FILLER_0_69_469
*9459 FILLER_0_69_473
*9460 FILLER_0_69_479
*9461 FILLER_0_69_484
*9462 FILLER_0_69_496
*9463 FILLER_0_69_505
*9464 FILLER_0_69_51
*9465 FILLER_0_69_522
*9466 FILLER_0_69_534
*9467 FILLER_0_69_548
*9468 FILLER_0_69_55
*9469 FILLER_0_69_561
*9470 FILLER_0_69_57
*9471 FILLER_0_69_576
*9472 FILLER_0_69_588
*9473 FILLER_0_69_600
*9474 FILLER_0_69_612
*9475 FILLER_0_69_617
*9476 FILLER_0_69_629
*9477 FILLER_0_69_641
*9478 FILLER_0_69_653
*9479 FILLER_0_69_665
*9480 FILLER_0_69_671
*9481 FILLER_0_69_673
*9482 FILLER_0_69_685
*9483 FILLER_0_69_69
*9484 FILLER_0_69_697
*9485 FILLER_0_69_709
*9486 FILLER_0_69_721
*9487 FILLER_0_69_727
*9488 FILLER_0_69_729
*9489 FILLER_0_69_741
*9490 FILLER_0_69_753
*9491 FILLER_0_69_765
*9492 FILLER_0_69_777
*9493 FILLER_0_69_783
*9494 FILLER_0_69_785
*9495 FILLER_0_69_797
*9496 FILLER_0_69_809
*9497 FILLER_0_69_81
*9498 FILLER_0_69_821
*9499 FILLER_0_69_93
*9500 FILLER_0_6_109
*9501 FILLER_0_6_121
*9502 FILLER_0_6_133
*9503 FILLER_0_6_139
*9504 FILLER_0_6_141
*9505 FILLER_0_6_15
*9506 FILLER_0_6_153
*9507 FILLER_0_6_165
*9508 FILLER_0_6_177
*9509 FILLER_0_6_189
*9510 FILLER_0_6_195
*9511 FILLER_0_6_197
*9512 FILLER_0_6_209
*9513 FILLER_0_6_221
*9514 FILLER_0_6_233
*9515 FILLER_0_6_245
*9516 FILLER_0_6_251
*9517 FILLER_0_6_253
*9518 FILLER_0_6_265
*9519 FILLER_0_6_27
*9520 FILLER_0_6_277
*9521 FILLER_0_6_289
*9522 FILLER_0_6_29
*9523 FILLER_0_6_3
*9524 FILLER_0_6_301
*9525 FILLER_0_6_307
*9526 FILLER_0_6_309
*9527 FILLER_0_6_321
*9528 FILLER_0_6_333
*9529 FILLER_0_6_345
*9530 FILLER_0_6_357
*9531 FILLER_0_6_363
*9532 FILLER_0_6_365
*9533 FILLER_0_6_377
*9534 FILLER_0_6_389
*9535 FILLER_0_6_401
*9536 FILLER_0_6_41
*9537 FILLER_0_6_413
*9538 FILLER_0_6_419
*9539 FILLER_0_6_421
*9540 FILLER_0_6_433
*9541 FILLER_0_6_445
*9542 FILLER_0_6_457
*9543 FILLER_0_6_469
*9544 FILLER_0_6_475
*9545 FILLER_0_6_477
*9546 FILLER_0_6_489
*9547 FILLER_0_6_501
*9548 FILLER_0_6_513
*9549 FILLER_0_6_525
*9550 FILLER_0_6_53
*9551 FILLER_0_6_531
*9552 FILLER_0_6_533
*9553 FILLER_0_6_545
*9554 FILLER_0_6_557
*9555 FILLER_0_6_569
*9556 FILLER_0_6_581
*9557 FILLER_0_6_587
*9558 FILLER_0_6_589
*9559 FILLER_0_6_601
*9560 FILLER_0_6_613
*9561 FILLER_0_6_625
*9562 FILLER_0_6_637
*9563 FILLER_0_6_643
*9564 FILLER_0_6_645
*9565 FILLER_0_6_65
*9566 FILLER_0_6_657
*9567 FILLER_0_6_669
*9568 FILLER_0_6_681
*9569 FILLER_0_6_693
*9570 FILLER_0_6_699
*9571 FILLER_0_6_701
*9572 FILLER_0_6_713
*9573 FILLER_0_6_725
*9574 FILLER_0_6_737
*9575 FILLER_0_6_749
*9576 FILLER_0_6_755
*9577 FILLER_0_6_757
*9578 FILLER_0_6_769
*9579 FILLER_0_6_77
*9580 FILLER_0_6_781
*9581 FILLER_0_6_793
*9582 FILLER_0_6_805
*9583 FILLER_0_6_811
*9584 FILLER_0_6_813
*9585 FILLER_0_6_821
*9586 FILLER_0_6_83
*9587 FILLER_0_6_85
*9588 FILLER_0_6_97
*9589 FILLER_0_70_109
*9590 FILLER_0_70_121
*9591 FILLER_0_70_133
*9592 FILLER_0_70_139
*9593 FILLER_0_70_141
*9594 FILLER_0_70_15
*9595 FILLER_0_70_153
*9596 FILLER_0_70_165
*9597 FILLER_0_70_177
*9598 FILLER_0_70_189
*9599 FILLER_0_70_195
*9600 FILLER_0_70_197
*9601 FILLER_0_70_209
*9602 FILLER_0_70_221
*9603 FILLER_0_70_233
*9604 FILLER_0_70_245
*9605 FILLER_0_70_251
*9606 FILLER_0_70_253
*9607 FILLER_0_70_265
*9608 FILLER_0_70_27
*9609 FILLER_0_70_277
*9610 FILLER_0_70_289
*9611 FILLER_0_70_29
*9612 FILLER_0_70_3
*9613 FILLER_0_70_301
*9614 FILLER_0_70_307
*9615 FILLER_0_70_309
*9616 FILLER_0_70_321
*9617 FILLER_0_70_333
*9618 FILLER_0_70_345
*9619 FILLER_0_70_357
*9620 FILLER_0_70_363
*9621 FILLER_0_70_365
*9622 FILLER_0_70_377
*9623 FILLER_0_70_381
*9624 FILLER_0_70_405
*9625 FILLER_0_70_41
*9626 FILLER_0_70_417
*9627 FILLER_0_70_421
*9628 FILLER_0_70_425
*9629 FILLER_0_70_437
*9630 FILLER_0_70_449
*9631 FILLER_0_70_461
*9632 FILLER_0_70_486
*9633 FILLER_0_70_498
*9634 FILLER_0_70_504
*9635 FILLER_0_70_511
*9636 FILLER_0_70_523
*9637 FILLER_0_70_53
*9638 FILLER_0_70_531
*9639 FILLER_0_70_533
*9640 FILLER_0_70_537
*9641 FILLER_0_70_543
*9642 FILLER_0_70_551
*9643 FILLER_0_70_562
*9644 FILLER_0_70_589
*9645 FILLER_0_70_601
*9646 FILLER_0_70_613
*9647 FILLER_0_70_625
*9648 FILLER_0_70_637
*9649 FILLER_0_70_643
*9650 FILLER_0_70_645
*9651 FILLER_0_70_65
*9652 FILLER_0_70_657
*9653 FILLER_0_70_669
*9654 FILLER_0_70_681
*9655 FILLER_0_70_693
*9656 FILLER_0_70_699
*9657 FILLER_0_70_701
*9658 FILLER_0_70_713
*9659 FILLER_0_70_725
*9660 FILLER_0_70_737
*9661 FILLER_0_70_749
*9662 FILLER_0_70_755
*9663 FILLER_0_70_757
*9664 FILLER_0_70_769
*9665 FILLER_0_70_77
*9666 FILLER_0_70_781
*9667 FILLER_0_70_793
*9668 FILLER_0_70_805
*9669 FILLER_0_70_811
*9670 FILLER_0_70_813
*9671 FILLER_0_70_83
*9672 FILLER_0_70_85
*9673 FILLER_0_70_97
*9674 FILLER_0_71_105
*9675 FILLER_0_71_111
*9676 FILLER_0_71_113
*9677 FILLER_0_71_125
*9678 FILLER_0_71_137
*9679 FILLER_0_71_149
*9680 FILLER_0_71_15
*9681 FILLER_0_71_161
*9682 FILLER_0_71_167
*9683 FILLER_0_71_169
*9684 FILLER_0_71_181
*9685 FILLER_0_71_193
*9686 FILLER_0_71_205
*9687 FILLER_0_71_217
*9688 FILLER_0_71_223
*9689 FILLER_0_71_225
*9690 FILLER_0_71_237
*9691 FILLER_0_71_249
*9692 FILLER_0_71_261
*9693 FILLER_0_71_27
*9694 FILLER_0_71_273
*9695 FILLER_0_71_279
*9696 FILLER_0_71_281
*9697 FILLER_0_71_293
*9698 FILLER_0_71_3
*9699 FILLER_0_71_305
*9700 FILLER_0_71_317
*9701 FILLER_0_71_329
*9702 FILLER_0_71_335
*9703 FILLER_0_71_337
*9704 FILLER_0_71_349
*9705 FILLER_0_71_361
*9706 FILLER_0_71_373
*9707 FILLER_0_71_385
*9708 FILLER_0_71_39
*9709 FILLER_0_71_391
*9710 FILLER_0_71_393
*9711 FILLER_0_71_405
*9712 FILLER_0_71_409
*9713 FILLER_0_71_439
*9714 FILLER_0_71_447
*9715 FILLER_0_71_449
*9716 FILLER_0_71_461
*9717 FILLER_0_71_473
*9718 FILLER_0_71_485
*9719 FILLER_0_71_497
*9720 FILLER_0_71_503
*9721 FILLER_0_71_505
*9722 FILLER_0_71_51
*9723 FILLER_0_71_517
*9724 FILLER_0_71_529
*9725 FILLER_0_71_541
*9726 FILLER_0_71_549
*9727 FILLER_0_71_55
*9728 FILLER_0_71_559
*9729 FILLER_0_71_561
*9730 FILLER_0_71_57
*9731 FILLER_0_71_573
*9732 FILLER_0_71_585
*9733 FILLER_0_71_597
*9734 FILLER_0_71_609
*9735 FILLER_0_71_615
*9736 FILLER_0_71_617
*9737 FILLER_0_71_629
*9738 FILLER_0_71_641
*9739 FILLER_0_71_653
*9740 FILLER_0_71_665
*9741 FILLER_0_71_671
*9742 FILLER_0_71_673
*9743 FILLER_0_71_685
*9744 FILLER_0_71_69
*9745 FILLER_0_71_697
*9746 FILLER_0_71_709
*9747 FILLER_0_71_721
*9748 FILLER_0_71_727
*9749 FILLER_0_71_729
*9750 FILLER_0_71_741
*9751 FILLER_0_71_753
*9752 FILLER_0_71_765
*9753 FILLER_0_71_777
*9754 FILLER_0_71_783
*9755 FILLER_0_71_785
*9756 FILLER_0_71_797
*9757 FILLER_0_71_809
*9758 FILLER_0_71_81
*9759 FILLER_0_71_821
*9760 FILLER_0_71_93
*9761 FILLER_0_72_109
*9762 FILLER_0_72_121
*9763 FILLER_0_72_133
*9764 FILLER_0_72_139
*9765 FILLER_0_72_141
*9766 FILLER_0_72_15
*9767 FILLER_0_72_153
*9768 FILLER_0_72_165
*9769 FILLER_0_72_177
*9770 FILLER_0_72_189
*9771 FILLER_0_72_195
*9772 FILLER_0_72_197
*9773 FILLER_0_72_209
*9774 FILLER_0_72_221
*9775 FILLER_0_72_233
*9776 FILLER_0_72_245
*9777 FILLER_0_72_251
*9778 FILLER_0_72_253
*9779 FILLER_0_72_265
*9780 FILLER_0_72_27
*9781 FILLER_0_72_277
*9782 FILLER_0_72_289
*9783 FILLER_0_72_29
*9784 FILLER_0_72_3
*9785 FILLER_0_72_301
*9786 FILLER_0_72_307
*9787 FILLER_0_72_309
*9788 FILLER_0_72_321
*9789 FILLER_0_72_333
*9790 FILLER_0_72_345
*9791 FILLER_0_72_357
*9792 FILLER_0_72_363
*9793 FILLER_0_72_365
*9794 FILLER_0_72_377
*9795 FILLER_0_72_389
*9796 FILLER_0_72_397
*9797 FILLER_0_72_405
*9798 FILLER_0_72_41
*9799 FILLER_0_72_417
*9800 FILLER_0_72_429
*9801 FILLER_0_72_441
*9802 FILLER_0_72_453
*9803 FILLER_0_72_477
*9804 FILLER_0_72_489
*9805 FILLER_0_72_501
*9806 FILLER_0_72_513
*9807 FILLER_0_72_525
*9808 FILLER_0_72_53
*9809 FILLER_0_72_531
*9810 FILLER_0_72_533
*9811 FILLER_0_72_545
*9812 FILLER_0_72_557
*9813 FILLER_0_72_569
*9814 FILLER_0_72_581
*9815 FILLER_0_72_587
*9816 FILLER_0_72_589
*9817 FILLER_0_72_601
*9818 FILLER_0_72_613
*9819 FILLER_0_72_625
*9820 FILLER_0_72_637
*9821 FILLER_0_72_643
*9822 FILLER_0_72_645
*9823 FILLER_0_72_65
*9824 FILLER_0_72_657
*9825 FILLER_0_72_669
*9826 FILLER_0_72_681
*9827 FILLER_0_72_693
*9828 FILLER_0_72_699
*9829 FILLER_0_72_701
*9830 FILLER_0_72_713
*9831 FILLER_0_72_725
*9832 FILLER_0_72_737
*9833 FILLER_0_72_749
*9834 FILLER_0_72_755
*9835 FILLER_0_72_757
*9836 FILLER_0_72_769
*9837 FILLER_0_72_77
*9838 FILLER_0_72_781
*9839 FILLER_0_72_793
*9840 FILLER_0_72_805
*9841 FILLER_0_72_811
*9842 FILLER_0_72_813
*9843 FILLER_0_72_821
*9844 FILLER_0_72_83
*9845 FILLER_0_72_85
*9846 FILLER_0_72_97
*9847 FILLER_0_73_105
*9848 FILLER_0_73_111
*9849 FILLER_0_73_113
*9850 FILLER_0_73_125
*9851 FILLER_0_73_137
*9852 FILLER_0_73_149
*9853 FILLER_0_73_15
*9854 FILLER_0_73_161
*9855 FILLER_0_73_167
*9856 FILLER_0_73_169
*9857 FILLER_0_73_181
*9858 FILLER_0_73_193
*9859 FILLER_0_73_205
*9860 FILLER_0_73_217
*9861 FILLER_0_73_223
*9862 FILLER_0_73_225
*9863 FILLER_0_73_237
*9864 FILLER_0_73_249
*9865 FILLER_0_73_261
*9866 FILLER_0_73_27
*9867 FILLER_0_73_273
*9868 FILLER_0_73_279
*9869 FILLER_0_73_281
*9870 FILLER_0_73_293
*9871 FILLER_0_73_3
*9872 FILLER_0_73_305
*9873 FILLER_0_73_317
*9874 FILLER_0_73_329
*9875 FILLER_0_73_335
*9876 FILLER_0_73_337
*9877 FILLER_0_73_349
*9878 FILLER_0_73_361
*9879 FILLER_0_73_373
*9880 FILLER_0_73_385
*9881 FILLER_0_73_39
*9882 FILLER_0_73_391
*9883 FILLER_0_73_393
*9884 FILLER_0_73_405
*9885 FILLER_0_73_417
*9886 FILLER_0_73_429
*9887 FILLER_0_73_441
*9888 FILLER_0_73_447
*9889 FILLER_0_73_449
*9890 FILLER_0_73_461
*9891 FILLER_0_73_473
*9892 FILLER_0_73_480
*9893 FILLER_0_73_492
*9894 FILLER_0_73_505
*9895 FILLER_0_73_51
*9896 FILLER_0_73_517
*9897 FILLER_0_73_529
*9898 FILLER_0_73_537
*9899 FILLER_0_73_55
*9900 FILLER_0_73_559
*9901 FILLER_0_73_561
*9902 FILLER_0_73_57
*9903 FILLER_0_73_573
*9904 FILLER_0_73_585
*9905 FILLER_0_73_597
*9906 FILLER_0_73_609
*9907 FILLER_0_73_615
*9908 FILLER_0_73_617
*9909 FILLER_0_73_629
*9910 FILLER_0_73_641
*9911 FILLER_0_73_653
*9912 FILLER_0_73_665
*9913 FILLER_0_73_671
*9914 FILLER_0_73_673
*9915 FILLER_0_73_685
*9916 FILLER_0_73_69
*9917 FILLER_0_73_697
*9918 FILLER_0_73_709
*9919 FILLER_0_73_721
*9920 FILLER_0_73_727
*9921 FILLER_0_73_729
*9922 FILLER_0_73_741
*9923 FILLER_0_73_753
*9924 FILLER_0_73_765
*9925 FILLER_0_73_777
*9926 FILLER_0_73_783
*9927 FILLER_0_73_785
*9928 FILLER_0_73_797
*9929 FILLER_0_73_809
*9930 FILLER_0_73_81
*9931 FILLER_0_73_821
*9932 FILLER_0_73_93
*9933 FILLER_0_74_109
*9934 FILLER_0_74_121
*9935 FILLER_0_74_133
*9936 FILLER_0_74_139
*9937 FILLER_0_74_141
*9938 FILLER_0_74_15
*9939 FILLER_0_74_153
*9940 FILLER_0_74_165
*9941 FILLER_0_74_177
*9942 FILLER_0_74_189
*9943 FILLER_0_74_195
*9944 FILLER_0_74_197
*9945 FILLER_0_74_209
*9946 FILLER_0_74_221
*9947 FILLER_0_74_233
*9948 FILLER_0_74_245
*9949 FILLER_0_74_251
*9950 FILLER_0_74_253
*9951 FILLER_0_74_265
*9952 FILLER_0_74_27
*9953 FILLER_0_74_277
*9954 FILLER_0_74_289
*9955 FILLER_0_74_29
*9956 FILLER_0_74_3
*9957 FILLER_0_74_301
*9958 FILLER_0_74_307
*9959 FILLER_0_74_309
*9960 FILLER_0_74_321
*9961 FILLER_0_74_333
*9962 FILLER_0_74_345
*9963 FILLER_0_74_357
*9964 FILLER_0_74_363
*9965 FILLER_0_74_365
*9966 FILLER_0_74_377
*9967 FILLER_0_74_389
*9968 FILLER_0_74_401
*9969 FILLER_0_74_41
*9970 FILLER_0_74_413
*9971 FILLER_0_74_419
*9972 FILLER_0_74_421
*9973 FILLER_0_74_429
*9974 FILLER_0_74_437
*9975 FILLER_0_74_449
*9976 FILLER_0_74_461
*9977 FILLER_0_74_475
*9978 FILLER_0_74_477
*9979 FILLER_0_74_489
*9980 FILLER_0_74_501
*9981 FILLER_0_74_513
*9982 FILLER_0_74_521
*9983 FILLER_0_74_529
*9984 FILLER_0_74_53
*9985 FILLER_0_74_536
*9986 FILLER_0_74_548
*9987 FILLER_0_74_557
*9988 FILLER_0_74_569
*9989 FILLER_0_74_581
*9990 FILLER_0_74_587
*9991 FILLER_0_74_589
*9992 FILLER_0_74_601
*9993 FILLER_0_74_613
*9994 FILLER_0_74_625
*9995 FILLER_0_74_637
*9996 FILLER_0_74_643
*9997 FILLER_0_74_645
*9998 FILLER_0_74_65
*9999 FILLER_0_74_657
*10000 FILLER_0_74_669
*10001 FILLER_0_74_681
*10002 FILLER_0_74_693
*10003 FILLER_0_74_699
*10004 FILLER_0_74_701
*10005 FILLER_0_74_713
*10006 FILLER_0_74_725
*10007 FILLER_0_74_737
*10008 FILLER_0_74_749
*10009 FILLER_0_74_755
*10010 FILLER_0_74_757
*10011 FILLER_0_74_769
*10012 FILLER_0_74_77
*10013 FILLER_0_74_781
*10014 FILLER_0_74_793
*10015 FILLER_0_74_805
*10016 FILLER_0_74_811
*10017 FILLER_0_74_813
*10018 FILLER_0_74_821
*10019 FILLER_0_74_83
*10020 FILLER_0_74_85
*10021 FILLER_0_74_97
*10022 FILLER_0_75_105
*10023 FILLER_0_75_111
*10024 FILLER_0_75_113
*10025 FILLER_0_75_125
*10026 FILLER_0_75_137
*10027 FILLER_0_75_149
*10028 FILLER_0_75_15
*10029 FILLER_0_75_161
*10030 FILLER_0_75_167
*10031 FILLER_0_75_169
*10032 FILLER_0_75_181
*10033 FILLER_0_75_193
*10034 FILLER_0_75_205
*10035 FILLER_0_75_217
*10036 FILLER_0_75_223
*10037 FILLER_0_75_225
*10038 FILLER_0_75_237
*10039 FILLER_0_75_249
*10040 FILLER_0_75_261
*10041 FILLER_0_75_27
*10042 FILLER_0_75_273
*10043 FILLER_0_75_279
*10044 FILLER_0_75_281
*10045 FILLER_0_75_293
*10046 FILLER_0_75_3
*10047 FILLER_0_75_305
*10048 FILLER_0_75_317
*10049 FILLER_0_75_329
*10050 FILLER_0_75_335
*10051 FILLER_0_75_337
*10052 FILLER_0_75_349
*10053 FILLER_0_75_361
*10054 FILLER_0_75_373
*10055 FILLER_0_75_385
*10056 FILLER_0_75_39
*10057 FILLER_0_75_391
*10058 FILLER_0_75_393
*10059 FILLER_0_75_405
*10060 FILLER_0_75_417
*10061 FILLER_0_75_428
*10062 FILLER_0_75_440
*10063 FILLER_0_75_449
*10064 FILLER_0_75_466
*10065 FILLER_0_75_484
*10066 FILLER_0_75_492
*10067 FILLER_0_75_501
*10068 FILLER_0_75_505
*10069 FILLER_0_75_51
*10070 FILLER_0_75_548
*10071 FILLER_0_75_55
*10072 FILLER_0_75_561
*10073 FILLER_0_75_57
*10074 FILLER_0_75_573
*10075 FILLER_0_75_579
*10076 FILLER_0_75_591
*10077 FILLER_0_75_603
*10078 FILLER_0_75_615
*10079 FILLER_0_75_617
*10080 FILLER_0_75_629
*10081 FILLER_0_75_641
*10082 FILLER_0_75_653
*10083 FILLER_0_75_665
*10084 FILLER_0_75_671
*10085 FILLER_0_75_673
*10086 FILLER_0_75_685
*10087 FILLER_0_75_69
*10088 FILLER_0_75_697
*10089 FILLER_0_75_709
*10090 FILLER_0_75_721
*10091 FILLER_0_75_727
*10092 FILLER_0_75_729
*10093 FILLER_0_75_741
*10094 FILLER_0_75_753
*10095 FILLER_0_75_765
*10096 FILLER_0_75_777
*10097 FILLER_0_75_783
*10098 FILLER_0_75_785
*10099 FILLER_0_75_797
*10100 FILLER_0_75_809
*10101 FILLER_0_75_81
*10102 FILLER_0_75_821
*10103 FILLER_0_75_93
*10104 FILLER_0_76_109
*10105 FILLER_0_76_121
*10106 FILLER_0_76_133
*10107 FILLER_0_76_139
*10108 FILLER_0_76_141
*10109 FILLER_0_76_15
*10110 FILLER_0_76_153
*10111 FILLER_0_76_165
*10112 FILLER_0_76_177
*10113 FILLER_0_76_189
*10114 FILLER_0_76_195
*10115 FILLER_0_76_197
*10116 FILLER_0_76_209
*10117 FILLER_0_76_221
*10118 FILLER_0_76_233
*10119 FILLER_0_76_245
*10120 FILLER_0_76_251
*10121 FILLER_0_76_253
*10122 FILLER_0_76_265
*10123 FILLER_0_76_27
*10124 FILLER_0_76_277
*10125 FILLER_0_76_289
*10126 FILLER_0_76_29
*10127 FILLER_0_76_3
*10128 FILLER_0_76_301
*10129 FILLER_0_76_307
*10130 FILLER_0_76_309
*10131 FILLER_0_76_321
*10132 FILLER_0_76_333
*10133 FILLER_0_76_345
*10134 FILLER_0_76_357
*10135 FILLER_0_76_363
*10136 FILLER_0_76_365
*10137 FILLER_0_76_377
*10138 FILLER_0_76_389
*10139 FILLER_0_76_401
*10140 FILLER_0_76_41
*10141 FILLER_0_76_413
*10142 FILLER_0_76_417
*10143 FILLER_0_76_435
*10144 FILLER_0_76_447
*10145 FILLER_0_76_459
*10146 FILLER_0_76_466
*10147 FILLER_0_76_486
*10148 FILLER_0_76_498
*10149 FILLER_0_76_504
*10150 FILLER_0_76_53
*10151 FILLER_0_76_539
*10152 FILLER_0_76_551
*10153 FILLER_0_76_561
*10154 FILLER_0_76_587
*10155 FILLER_0_76_589
*10156 FILLER_0_76_601
*10157 FILLER_0_76_613
*10158 FILLER_0_76_625
*10159 FILLER_0_76_637
*10160 FILLER_0_76_643
*10161 FILLER_0_76_645
*10162 FILLER_0_76_65
*10163 FILLER_0_76_657
*10164 FILLER_0_76_669
*10165 FILLER_0_76_681
*10166 FILLER_0_76_693
*10167 FILLER_0_76_699
*10168 FILLER_0_76_701
*10169 FILLER_0_76_713
*10170 FILLER_0_76_725
*10171 FILLER_0_76_737
*10172 FILLER_0_76_749
*10173 FILLER_0_76_755
*10174 FILLER_0_76_757
*10175 FILLER_0_76_769
*10176 FILLER_0_76_77
*10177 FILLER_0_76_781
*10178 FILLER_0_76_793
*10179 FILLER_0_76_805
*10180 FILLER_0_76_811
*10181 FILLER_0_76_813
*10182 FILLER_0_76_821
*10183 FILLER_0_76_83
*10184 FILLER_0_76_85
*10185 FILLER_0_76_97
*10186 FILLER_0_77_105
*10187 FILLER_0_77_111
*10188 FILLER_0_77_113
*10189 FILLER_0_77_125
*10190 FILLER_0_77_137
*10191 FILLER_0_77_149
*10192 FILLER_0_77_15
*10193 FILLER_0_77_161
*10194 FILLER_0_77_167
*10195 FILLER_0_77_169
*10196 FILLER_0_77_181
*10197 FILLER_0_77_193
*10198 FILLER_0_77_205
*10199 FILLER_0_77_217
*10200 FILLER_0_77_223
*10201 FILLER_0_77_225
*10202 FILLER_0_77_237
*10203 FILLER_0_77_249
*10204 FILLER_0_77_261
*10205 FILLER_0_77_27
*10206 FILLER_0_77_273
*10207 FILLER_0_77_279
*10208 FILLER_0_77_281
*10209 FILLER_0_77_293
*10210 FILLER_0_77_3
*10211 FILLER_0_77_305
*10212 FILLER_0_77_317
*10213 FILLER_0_77_329
*10214 FILLER_0_77_335
*10215 FILLER_0_77_337
*10216 FILLER_0_77_349
*10217 FILLER_0_77_361
*10218 FILLER_0_77_373
*10219 FILLER_0_77_385
*10220 FILLER_0_77_39
*10221 FILLER_0_77_391
*10222 FILLER_0_77_393
*10223 FILLER_0_77_401
*10224 FILLER_0_77_427
*10225 FILLER_0_77_439
*10226 FILLER_0_77_447
*10227 FILLER_0_77_449
*10228 FILLER_0_77_460
*10229 FILLER_0_77_489
*10230 FILLER_0_77_501
*10231 FILLER_0_77_505
*10232 FILLER_0_77_51
*10233 FILLER_0_77_512
*10234 FILLER_0_77_524
*10235 FILLER_0_77_536
*10236 FILLER_0_77_548
*10237 FILLER_0_77_55
*10238 FILLER_0_77_561
*10239 FILLER_0_77_565
*10240 FILLER_0_77_57
*10241 FILLER_0_77_589
*10242 FILLER_0_77_601
*10243 FILLER_0_77_613
*10244 FILLER_0_77_617
*10245 FILLER_0_77_629
*10246 FILLER_0_77_641
*10247 FILLER_0_77_653
*10248 FILLER_0_77_665
*10249 FILLER_0_77_671
*10250 FILLER_0_77_673
*10251 FILLER_0_77_685
*10252 FILLER_0_77_69
*10253 FILLER_0_77_697
*10254 FILLER_0_77_709
*10255 FILLER_0_77_721
*10256 FILLER_0_77_727
*10257 FILLER_0_77_729
*10258 FILLER_0_77_741
*10259 FILLER_0_77_753
*10260 FILLER_0_77_765
*10261 FILLER_0_77_777
*10262 FILLER_0_77_783
*10263 FILLER_0_77_785
*10264 FILLER_0_77_797
*10265 FILLER_0_77_809
*10266 FILLER_0_77_81
*10267 FILLER_0_77_821
*10268 FILLER_0_77_93
*10269 FILLER_0_78_109
*10270 FILLER_0_78_121
*10271 FILLER_0_78_133
*10272 FILLER_0_78_139
*10273 FILLER_0_78_141
*10274 FILLER_0_78_15
*10275 FILLER_0_78_153
*10276 FILLER_0_78_165
*10277 FILLER_0_78_177
*10278 FILLER_0_78_189
*10279 FILLER_0_78_195
*10280 FILLER_0_78_197
*10281 FILLER_0_78_209
*10282 FILLER_0_78_221
*10283 FILLER_0_78_233
*10284 FILLER_0_78_245
*10285 FILLER_0_78_251
*10286 FILLER_0_78_253
*10287 FILLER_0_78_265
*10288 FILLER_0_78_27
*10289 FILLER_0_78_277
*10290 FILLER_0_78_289
*10291 FILLER_0_78_29
*10292 FILLER_0_78_3
*10293 FILLER_0_78_301
*10294 FILLER_0_78_307
*10295 FILLER_0_78_309
*10296 FILLER_0_78_321
*10297 FILLER_0_78_333
*10298 FILLER_0_78_345
*10299 FILLER_0_78_357
*10300 FILLER_0_78_363
*10301 FILLER_0_78_365
*10302 FILLER_0_78_377
*10303 FILLER_0_78_389
*10304 FILLER_0_78_401
*10305 FILLER_0_78_41
*10306 FILLER_0_78_413
*10307 FILLER_0_78_424
*10308 FILLER_0_78_436
*10309 FILLER_0_78_448
*10310 FILLER_0_78_452
*10311 FILLER_0_78_460
*10312 FILLER_0_78_465
*10313 FILLER_0_78_473
*10314 FILLER_0_78_477
*10315 FILLER_0_78_485
*10316 FILLER_0_78_494
*10317 FILLER_0_78_506
*10318 FILLER_0_78_518
*10319 FILLER_0_78_53
*10320 FILLER_0_78_530
*10321 FILLER_0_78_533
*10322 FILLER_0_78_545
*10323 FILLER_0_78_557
*10324 FILLER_0_78_569
*10325 FILLER_0_78_580
*10326 FILLER_0_78_589
*10327 FILLER_0_78_601
*10328 FILLER_0_78_613
*10329 FILLER_0_78_625
*10330 FILLER_0_78_637
*10331 FILLER_0_78_643
*10332 FILLER_0_78_645
*10333 FILLER_0_78_65
*10334 FILLER_0_78_657
*10335 FILLER_0_78_669
*10336 FILLER_0_78_681
*10337 FILLER_0_78_693
*10338 FILLER_0_78_699
*10339 FILLER_0_78_701
*10340 FILLER_0_78_713
*10341 FILLER_0_78_725
*10342 FILLER_0_78_737
*10343 FILLER_0_78_749
*10344 FILLER_0_78_755
*10345 FILLER_0_78_757
*10346 FILLER_0_78_769
*10347 FILLER_0_78_77
*10348 FILLER_0_78_781
*10349 FILLER_0_78_793
*10350 FILLER_0_78_805
*10351 FILLER_0_78_811
*10352 FILLER_0_78_813
*10353 FILLER_0_78_821
*10354 FILLER_0_78_83
*10355 FILLER_0_78_85
*10356 FILLER_0_78_97
*10357 FILLER_0_79_105
*10358 FILLER_0_79_111
*10359 FILLER_0_79_113
*10360 FILLER_0_79_125
*10361 FILLER_0_79_137
*10362 FILLER_0_79_149
*10363 FILLER_0_79_15
*10364 FILLER_0_79_161
*10365 FILLER_0_79_167
*10366 FILLER_0_79_169
*10367 FILLER_0_79_181
*10368 FILLER_0_79_193
*10369 FILLER_0_79_205
*10370 FILLER_0_79_217
*10371 FILLER_0_79_223
*10372 FILLER_0_79_225
*10373 FILLER_0_79_237
*10374 FILLER_0_79_249
*10375 FILLER_0_79_261
*10376 FILLER_0_79_27
*10377 FILLER_0_79_273
*10378 FILLER_0_79_279
*10379 FILLER_0_79_281
*10380 FILLER_0_79_293
*10381 FILLER_0_79_3
*10382 FILLER_0_79_305
*10383 FILLER_0_79_317
*10384 FILLER_0_79_329
*10385 FILLER_0_79_335
*10386 FILLER_0_79_337
*10387 FILLER_0_79_349
*10388 FILLER_0_79_361
*10389 FILLER_0_79_373
*10390 FILLER_0_79_385
*10391 FILLER_0_79_39
*10392 FILLER_0_79_391
*10393 FILLER_0_79_393
*10394 FILLER_0_79_405
*10395 FILLER_0_79_409
*10396 FILLER_0_79_433
*10397 FILLER_0_79_439
*10398 FILLER_0_79_446
*10399 FILLER_0_79_449
*10400 FILLER_0_79_459
*10401 FILLER_0_79_471
*10402 FILLER_0_79_483
*10403 FILLER_0_79_495
*10404 FILLER_0_79_503
*10405 FILLER_0_79_505
*10406 FILLER_0_79_51
*10407 FILLER_0_79_517
*10408 FILLER_0_79_529
*10409 FILLER_0_79_533
*10410 FILLER_0_79_537
*10411 FILLER_0_79_549
*10412 FILLER_0_79_55
*10413 FILLER_0_79_558
*10414 FILLER_0_79_561
*10415 FILLER_0_79_57
*10416 FILLER_0_79_573
*10417 FILLER_0_79_585
*10418 FILLER_0_79_597
*10419 FILLER_0_79_609
*10420 FILLER_0_79_615
*10421 FILLER_0_79_617
*10422 FILLER_0_79_629
*10423 FILLER_0_79_641
*10424 FILLER_0_79_653
*10425 FILLER_0_79_665
*10426 FILLER_0_79_671
*10427 FILLER_0_79_673
*10428 FILLER_0_79_685
*10429 FILLER_0_79_69
*10430 FILLER_0_79_697
*10431 FILLER_0_79_709
*10432 FILLER_0_79_721
*10433 FILLER_0_79_727
*10434 FILLER_0_79_729
*10435 FILLER_0_79_741
*10436 FILLER_0_79_753
*10437 FILLER_0_79_765
*10438 FILLER_0_79_777
*10439 FILLER_0_79_783
*10440 FILLER_0_79_785
*10441 FILLER_0_79_797
*10442 FILLER_0_79_809
*10443 FILLER_0_79_81
*10444 FILLER_0_79_821
*10445 FILLER_0_79_93
*10446 FILLER_0_7_105
*10447 FILLER_0_7_111
*10448 FILLER_0_7_113
*10449 FILLER_0_7_125
*10450 FILLER_0_7_137
*10451 FILLER_0_7_149
*10452 FILLER_0_7_15
*10453 FILLER_0_7_161
*10454 FILLER_0_7_167
*10455 FILLER_0_7_169
*10456 FILLER_0_7_181
*10457 FILLER_0_7_193
*10458 FILLER_0_7_205
*10459 FILLER_0_7_217
*10460 FILLER_0_7_223
*10461 FILLER_0_7_225
*10462 FILLER_0_7_237
*10463 FILLER_0_7_249
*10464 FILLER_0_7_261
*10465 FILLER_0_7_27
*10466 FILLER_0_7_273
*10467 FILLER_0_7_279
*10468 FILLER_0_7_281
*10469 FILLER_0_7_293
*10470 FILLER_0_7_3
*10471 FILLER_0_7_305
*10472 FILLER_0_7_317
*10473 FILLER_0_7_329
*10474 FILLER_0_7_335
*10475 FILLER_0_7_337
*10476 FILLER_0_7_349
*10477 FILLER_0_7_361
*10478 FILLER_0_7_373
*10479 FILLER_0_7_385
*10480 FILLER_0_7_39
*10481 FILLER_0_7_391
*10482 FILLER_0_7_393
*10483 FILLER_0_7_405
*10484 FILLER_0_7_417
*10485 FILLER_0_7_429
*10486 FILLER_0_7_441
*10487 FILLER_0_7_447
*10488 FILLER_0_7_449
*10489 FILLER_0_7_461
*10490 FILLER_0_7_473
*10491 FILLER_0_7_485
*10492 FILLER_0_7_497
*10493 FILLER_0_7_503
*10494 FILLER_0_7_505
*10495 FILLER_0_7_51
*10496 FILLER_0_7_517
*10497 FILLER_0_7_529
*10498 FILLER_0_7_541
*10499 FILLER_0_7_55
*10500 FILLER_0_7_553
*10501 FILLER_0_7_559
*10502 FILLER_0_7_561
*10503 FILLER_0_7_57
*10504 FILLER_0_7_573
*10505 FILLER_0_7_585
*10506 FILLER_0_7_597
*10507 FILLER_0_7_609
*10508 FILLER_0_7_615
*10509 FILLER_0_7_617
*10510 FILLER_0_7_629
*10511 FILLER_0_7_641
*10512 FILLER_0_7_653
*10513 FILLER_0_7_665
*10514 FILLER_0_7_671
*10515 FILLER_0_7_673
*10516 FILLER_0_7_685
*10517 FILLER_0_7_69
*10518 FILLER_0_7_697
*10519 FILLER_0_7_709
*10520 FILLER_0_7_721
*10521 FILLER_0_7_727
*10522 FILLER_0_7_729
*10523 FILLER_0_7_741
*10524 FILLER_0_7_753
*10525 FILLER_0_7_765
*10526 FILLER_0_7_777
*10527 FILLER_0_7_783
*10528 FILLER_0_7_785
*10529 FILLER_0_7_797
*10530 FILLER_0_7_809
*10531 FILLER_0_7_81
*10532 FILLER_0_7_817
*10533 FILLER_0_7_93
*10534 FILLER_0_80_109
*10535 FILLER_0_80_121
*10536 FILLER_0_80_133
*10537 FILLER_0_80_139
*10538 FILLER_0_80_141
*10539 FILLER_0_80_153
*10540 FILLER_0_80_165
*10541 FILLER_0_80_177
*10542 FILLER_0_80_18
*10543 FILLER_0_80_189
*10544 FILLER_0_80_195
*10545 FILLER_0_80_197
*10546 FILLER_0_80_209
*10547 FILLER_0_80_221
*10548 FILLER_0_80_233
*10549 FILLER_0_80_245
*10550 FILLER_0_80_251
*10551 FILLER_0_80_253
*10552 FILLER_0_80_26
*10553 FILLER_0_80_265
*10554 FILLER_0_80_277
*10555 FILLER_0_80_289
*10556 FILLER_0_80_29
*10557 FILLER_0_80_301
*10558 FILLER_0_80_307
*10559 FILLER_0_80_309
*10560 FILLER_0_80_321
*10561 FILLER_0_80_333
*10562 FILLER_0_80_345
*10563 FILLER_0_80_357
*10564 FILLER_0_80_363
*10565 FILLER_0_80_365
*10566 FILLER_0_80_377
*10567 FILLER_0_80_389
*10568 FILLER_0_80_401
*10569 FILLER_0_80_41
*10570 FILLER_0_80_413
*10571 FILLER_0_80_419
*10572 FILLER_0_80_421
*10573 FILLER_0_80_433
*10574 FILLER_0_80_437
*10575 FILLER_0_80_461
*10576 FILLER_0_80_473
*10577 FILLER_0_80_477
*10578 FILLER_0_80_489
*10579 FILLER_0_80_501
*10580 FILLER_0_80_509
*10581 FILLER_0_80_520
*10582 FILLER_0_80_53
*10583 FILLER_0_80_533
*10584 FILLER_0_80_567
*10585 FILLER_0_80_579
*10586 FILLER_0_80_587
*10587 FILLER_0_80_589
*10588 FILLER_0_80_6
*10589 FILLER_0_80_601
*10590 FILLER_0_80_613
*10591 FILLER_0_80_625
*10592 FILLER_0_80_637
*10593 FILLER_0_80_643
*10594 FILLER_0_80_645
*10595 FILLER_0_80_65
*10596 FILLER_0_80_657
*10597 FILLER_0_80_669
*10598 FILLER_0_80_681
*10599 FILLER_0_80_693
*10600 FILLER_0_80_699
*10601 FILLER_0_80_701
*10602 FILLER_0_80_713
*10603 FILLER_0_80_725
*10604 FILLER_0_80_737
*10605 FILLER_0_80_749
*10606 FILLER_0_80_755
*10607 FILLER_0_80_757
*10608 FILLER_0_80_769
*10609 FILLER_0_80_77
*10610 FILLER_0_80_781
*10611 FILLER_0_80_793
*10612 FILLER_0_80_805
*10613 FILLER_0_80_811
*10614 FILLER_0_80_813
*10615 FILLER_0_80_821
*10616 FILLER_0_80_83
*10617 FILLER_0_80_85
*10618 FILLER_0_80_97
*10619 FILLER_0_81_105
*10620 FILLER_0_81_111
*10621 FILLER_0_81_113
*10622 FILLER_0_81_125
*10623 FILLER_0_81_137
*10624 FILLER_0_81_149
*10625 FILLER_0_81_15
*10626 FILLER_0_81_161
*10627 FILLER_0_81_167
*10628 FILLER_0_81_169
*10629 FILLER_0_81_181
*10630 FILLER_0_81_193
*10631 FILLER_0_81_205
*10632 FILLER_0_81_217
*10633 FILLER_0_81_223
*10634 FILLER_0_81_225
*10635 FILLER_0_81_237
*10636 FILLER_0_81_249
*10637 FILLER_0_81_261
*10638 FILLER_0_81_27
*10639 FILLER_0_81_273
*10640 FILLER_0_81_279
*10641 FILLER_0_81_281
*10642 FILLER_0_81_293
*10643 FILLER_0_81_3
*10644 FILLER_0_81_305
*10645 FILLER_0_81_317
*10646 FILLER_0_81_329
*10647 FILLER_0_81_335
*10648 FILLER_0_81_337
*10649 FILLER_0_81_349
*10650 FILLER_0_81_361
*10651 FILLER_0_81_373
*10652 FILLER_0_81_385
*10653 FILLER_0_81_39
*10654 FILLER_0_81_391
*10655 FILLER_0_81_393
*10656 FILLER_0_81_405
*10657 FILLER_0_81_417
*10658 FILLER_0_81_429
*10659 FILLER_0_81_441
*10660 FILLER_0_81_447
*10661 FILLER_0_81_452
*10662 FILLER_0_81_464
*10663 FILLER_0_81_482
*10664 FILLER_0_81_494
*10665 FILLER_0_81_502
*10666 FILLER_0_81_505
*10667 FILLER_0_81_51
*10668 FILLER_0_81_511
*10669 FILLER_0_81_515
*10670 FILLER_0_81_527
*10671 FILLER_0_81_539
*10672 FILLER_0_81_55
*10673 FILLER_0_81_551
*10674 FILLER_0_81_559
*10675 FILLER_0_81_561
*10676 FILLER_0_81_57
*10677 FILLER_0_81_573
*10678 FILLER_0_81_585
*10679 FILLER_0_81_597
*10680 FILLER_0_81_609
*10681 FILLER_0_81_615
*10682 FILLER_0_81_617
*10683 FILLER_0_81_629
*10684 FILLER_0_81_641
*10685 FILLER_0_81_653
*10686 FILLER_0_81_665
*10687 FILLER_0_81_671
*10688 FILLER_0_81_673
*10689 FILLER_0_81_685
*10690 FILLER_0_81_69
*10691 FILLER_0_81_697
*10692 FILLER_0_81_709
*10693 FILLER_0_81_721
*10694 FILLER_0_81_727
*10695 FILLER_0_81_729
*10696 FILLER_0_81_741
*10697 FILLER_0_81_753
*10698 FILLER_0_81_765
*10699 FILLER_0_81_777
*10700 FILLER_0_81_783
*10701 FILLER_0_81_785
*10702 FILLER_0_81_797
*10703 FILLER_0_81_809
*10704 FILLER_0_81_81
*10705 FILLER_0_81_821
*10706 FILLER_0_81_93
*10707 FILLER_0_82_109
*10708 FILLER_0_82_121
*10709 FILLER_0_82_133
*10710 FILLER_0_82_139
*10711 FILLER_0_82_141
*10712 FILLER_0_82_15
*10713 FILLER_0_82_153
*10714 FILLER_0_82_165
*10715 FILLER_0_82_177
*10716 FILLER_0_82_189
*10717 FILLER_0_82_195
*10718 FILLER_0_82_197
*10719 FILLER_0_82_209
*10720 FILLER_0_82_221
*10721 FILLER_0_82_233
*10722 FILLER_0_82_245
*10723 FILLER_0_82_251
*10724 FILLER_0_82_253
*10725 FILLER_0_82_265
*10726 FILLER_0_82_27
*10727 FILLER_0_82_277
*10728 FILLER_0_82_289
*10729 FILLER_0_82_29
*10730 FILLER_0_82_3
*10731 FILLER_0_82_301
*10732 FILLER_0_82_307
*10733 FILLER_0_82_309
*10734 FILLER_0_82_321
*10735 FILLER_0_82_333
*10736 FILLER_0_82_345
*10737 FILLER_0_82_357
*10738 FILLER_0_82_363
*10739 FILLER_0_82_365
*10740 FILLER_0_82_377
*10741 FILLER_0_82_389
*10742 FILLER_0_82_401
*10743 FILLER_0_82_41
*10744 FILLER_0_82_413
*10745 FILLER_0_82_419
*10746 FILLER_0_82_421
*10747 FILLER_0_82_433
*10748 FILLER_0_82_445
*10749 FILLER_0_82_457
*10750 FILLER_0_82_469
*10751 FILLER_0_82_475
*10752 FILLER_0_82_477
*10753 FILLER_0_82_489
*10754 FILLER_0_82_497
*10755 FILLER_0_82_523
*10756 FILLER_0_82_53
*10757 FILLER_0_82_531
*10758 FILLER_0_82_533
*10759 FILLER_0_82_545
*10760 FILLER_0_82_557
*10761 FILLER_0_82_569
*10762 FILLER_0_82_581
*10763 FILLER_0_82_587
*10764 FILLER_0_82_589
*10765 FILLER_0_82_601
*10766 FILLER_0_82_613
*10767 FILLER_0_82_625
*10768 FILLER_0_82_637
*10769 FILLER_0_82_643
*10770 FILLER_0_82_645
*10771 FILLER_0_82_65
*10772 FILLER_0_82_657
*10773 FILLER_0_82_669
*10774 FILLER_0_82_681
*10775 FILLER_0_82_693
*10776 FILLER_0_82_699
*10777 FILLER_0_82_701
*10778 FILLER_0_82_713
*10779 FILLER_0_82_725
*10780 FILLER_0_82_737
*10781 FILLER_0_82_749
*10782 FILLER_0_82_755
*10783 FILLER_0_82_757
*10784 FILLER_0_82_769
*10785 FILLER_0_82_77
*10786 FILLER_0_82_781
*10787 FILLER_0_82_793
*10788 FILLER_0_82_805
*10789 FILLER_0_82_811
*10790 FILLER_0_82_813
*10791 FILLER_0_82_821
*10792 FILLER_0_82_83
*10793 FILLER_0_82_85
*10794 FILLER_0_82_97
*10795 FILLER_0_83_105
*10796 FILLER_0_83_111
*10797 FILLER_0_83_113
*10798 FILLER_0_83_125
*10799 FILLER_0_83_137
*10800 FILLER_0_83_149
*10801 FILLER_0_83_15
*10802 FILLER_0_83_161
*10803 FILLER_0_83_167
*10804 FILLER_0_83_169
*10805 FILLER_0_83_181
*10806 FILLER_0_83_193
*10807 FILLER_0_83_205
*10808 FILLER_0_83_217
*10809 FILLER_0_83_223
*10810 FILLER_0_83_225
*10811 FILLER_0_83_237
*10812 FILLER_0_83_249
*10813 FILLER_0_83_261
*10814 FILLER_0_83_27
*10815 FILLER_0_83_273
*10816 FILLER_0_83_279
*10817 FILLER_0_83_281
*10818 FILLER_0_83_293
*10819 FILLER_0_83_3
*10820 FILLER_0_83_305
*10821 FILLER_0_83_317
*10822 FILLER_0_83_329
*10823 FILLER_0_83_335
*10824 FILLER_0_83_337
*10825 FILLER_0_83_349
*10826 FILLER_0_83_361
*10827 FILLER_0_83_373
*10828 FILLER_0_83_385
*10829 FILLER_0_83_39
*10830 FILLER_0_83_391
*10831 FILLER_0_83_393
*10832 FILLER_0_83_405
*10833 FILLER_0_83_417
*10834 FILLER_0_83_429
*10835 FILLER_0_83_441
*10836 FILLER_0_83_447
*10837 FILLER_0_83_449
*10838 FILLER_0_83_484
*10839 FILLER_0_83_496
*10840 FILLER_0_83_505
*10841 FILLER_0_83_509
*10842 FILLER_0_83_51
*10843 FILLER_0_83_513
*10844 FILLER_0_83_525
*10845 FILLER_0_83_537
*10846 FILLER_0_83_549
*10847 FILLER_0_83_55
*10848 FILLER_0_83_557
*10849 FILLER_0_83_561
*10850 FILLER_0_83_57
*10851 FILLER_0_83_573
*10852 FILLER_0_83_585
*10853 FILLER_0_83_597
*10854 FILLER_0_83_609
*10855 FILLER_0_83_615
*10856 FILLER_0_83_617
*10857 FILLER_0_83_629
*10858 FILLER_0_83_641
*10859 FILLER_0_83_653
*10860 FILLER_0_83_665
*10861 FILLER_0_83_671
*10862 FILLER_0_83_673
*10863 FILLER_0_83_685
*10864 FILLER_0_83_69
*10865 FILLER_0_83_697
*10866 FILLER_0_83_709
*10867 FILLER_0_83_721
*10868 FILLER_0_83_727
*10869 FILLER_0_83_729
*10870 FILLER_0_83_741
*10871 FILLER_0_83_753
*10872 FILLER_0_83_765
*10873 FILLER_0_83_777
*10874 FILLER_0_83_783
*10875 FILLER_0_83_785
*10876 FILLER_0_83_797
*10877 FILLER_0_83_809
*10878 FILLER_0_83_81
*10879 FILLER_0_83_821
*10880 FILLER_0_83_93
*10881 FILLER_0_84_109
*10882 FILLER_0_84_121
*10883 FILLER_0_84_133
*10884 FILLER_0_84_139
*10885 FILLER_0_84_141
*10886 FILLER_0_84_15
*10887 FILLER_0_84_153
*10888 FILLER_0_84_165
*10889 FILLER_0_84_177
*10890 FILLER_0_84_189
*10891 FILLER_0_84_195
*10892 FILLER_0_84_197
*10893 FILLER_0_84_209
*10894 FILLER_0_84_221
*10895 FILLER_0_84_233
*10896 FILLER_0_84_245
*10897 FILLER_0_84_251
*10898 FILLER_0_84_253
*10899 FILLER_0_84_265
*10900 FILLER_0_84_27
*10901 FILLER_0_84_277
*10902 FILLER_0_84_289
*10903 FILLER_0_84_29
*10904 FILLER_0_84_3
*10905 FILLER_0_84_301
*10906 FILLER_0_84_307
*10907 FILLER_0_84_309
*10908 FILLER_0_84_321
*10909 FILLER_0_84_333
*10910 FILLER_0_84_345
*10911 FILLER_0_84_357
*10912 FILLER_0_84_363
*10913 FILLER_0_84_365
*10914 FILLER_0_84_377
*10915 FILLER_0_84_389
*10916 FILLER_0_84_401
*10917 FILLER_0_84_41
*10918 FILLER_0_84_413
*10919 FILLER_0_84_419
*10920 FILLER_0_84_421
*10921 FILLER_0_84_433
*10922 FILLER_0_84_445
*10923 FILLER_0_84_457
*10924 FILLER_0_84_469
*10925 FILLER_0_84_475
*10926 FILLER_0_84_477
*10927 FILLER_0_84_489
*10928 FILLER_0_84_501
*10929 FILLER_0_84_513
*10930 FILLER_0_84_525
*10931 FILLER_0_84_53
*10932 FILLER_0_84_531
*10933 FILLER_0_84_533
*10934 FILLER_0_84_545
*10935 FILLER_0_84_557
*10936 FILLER_0_84_569
*10937 FILLER_0_84_581
*10938 FILLER_0_84_587
*10939 FILLER_0_84_589
*10940 FILLER_0_84_601
*10941 FILLER_0_84_613
*10942 FILLER_0_84_625
*10943 FILLER_0_84_637
*10944 FILLER_0_84_643
*10945 FILLER_0_84_645
*10946 FILLER_0_84_65
*10947 FILLER_0_84_657
*10948 FILLER_0_84_669
*10949 FILLER_0_84_681
*10950 FILLER_0_84_693
*10951 FILLER_0_84_699
*10952 FILLER_0_84_701
*10953 FILLER_0_84_713
*10954 FILLER_0_84_725
*10955 FILLER_0_84_737
*10956 FILLER_0_84_749
*10957 FILLER_0_84_755
*10958 FILLER_0_84_757
*10959 FILLER_0_84_769
*10960 FILLER_0_84_77
*10961 FILLER_0_84_781
*10962 FILLER_0_84_793
*10963 FILLER_0_84_805
*10964 FILLER_0_84_811
*10965 FILLER_0_84_813
*10966 FILLER_0_84_821
*10967 FILLER_0_84_83
*10968 FILLER_0_84_85
*10969 FILLER_0_84_97
*10970 FILLER_0_85_105
*10971 FILLER_0_85_111
*10972 FILLER_0_85_113
*10973 FILLER_0_85_125
*10974 FILLER_0_85_137
*10975 FILLER_0_85_149
*10976 FILLER_0_85_15
*10977 FILLER_0_85_161
*10978 FILLER_0_85_167
*10979 FILLER_0_85_169
*10980 FILLER_0_85_181
*10981 FILLER_0_85_193
*10982 FILLER_0_85_205
*10983 FILLER_0_85_217
*10984 FILLER_0_85_223
*10985 FILLER_0_85_225
*10986 FILLER_0_85_237
*10987 FILLER_0_85_249
*10988 FILLER_0_85_261
*10989 FILLER_0_85_27
*10990 FILLER_0_85_273
*10991 FILLER_0_85_279
*10992 FILLER_0_85_281
*10993 FILLER_0_85_293
*10994 FILLER_0_85_3
*10995 FILLER_0_85_305
*10996 FILLER_0_85_317
*10997 FILLER_0_85_329
*10998 FILLER_0_85_335
*10999 FILLER_0_85_337
*11000 FILLER_0_85_349
*11001 FILLER_0_85_361
*11002 FILLER_0_85_373
*11003 FILLER_0_85_385
*11004 FILLER_0_85_39
*11005 FILLER_0_85_391
*11006 FILLER_0_85_393
*11007 FILLER_0_85_405
*11008 FILLER_0_85_417
*11009 FILLER_0_85_429
*11010 FILLER_0_85_441
*11011 FILLER_0_85_447
*11012 FILLER_0_85_449
*11013 FILLER_0_85_461
*11014 FILLER_0_85_473
*11015 FILLER_0_85_485
*11016 FILLER_0_85_497
*11017 FILLER_0_85_503
*11018 FILLER_0_85_505
*11019 FILLER_0_85_51
*11020 FILLER_0_85_517
*11021 FILLER_0_85_529
*11022 FILLER_0_85_541
*11023 FILLER_0_85_55
*11024 FILLER_0_85_553
*11025 FILLER_0_85_559
*11026 FILLER_0_85_561
*11027 FILLER_0_85_57
*11028 FILLER_0_85_573
*11029 FILLER_0_85_585
*11030 FILLER_0_85_597
*11031 FILLER_0_85_609
*11032 FILLER_0_85_615
*11033 FILLER_0_85_617
*11034 FILLER_0_85_629
*11035 FILLER_0_85_641
*11036 FILLER_0_85_653
*11037 FILLER_0_85_665
*11038 FILLER_0_85_671
*11039 FILLER_0_85_673
*11040 FILLER_0_85_685
*11041 FILLER_0_85_69
*11042 FILLER_0_85_697
*11043 FILLER_0_85_709
*11044 FILLER_0_85_721
*11045 FILLER_0_85_727
*11046 FILLER_0_85_729
*11047 FILLER_0_85_741
*11048 FILLER_0_85_753
*11049 FILLER_0_85_765
*11050 FILLER_0_85_777
*11051 FILLER_0_85_783
*11052 FILLER_0_85_785
*11053 FILLER_0_85_797
*11054 FILLER_0_85_809
*11055 FILLER_0_85_81
*11056 FILLER_0_85_821
*11057 FILLER_0_85_93
*11058 FILLER_0_86_109
*11059 FILLER_0_86_121
*11060 FILLER_0_86_133
*11061 FILLER_0_86_139
*11062 FILLER_0_86_141
*11063 FILLER_0_86_15
*11064 FILLER_0_86_153
*11065 FILLER_0_86_165
*11066 FILLER_0_86_177
*11067 FILLER_0_86_189
*11068 FILLER_0_86_195
*11069 FILLER_0_86_197
*11070 FILLER_0_86_209
*11071 FILLER_0_86_221
*11072 FILLER_0_86_233
*11073 FILLER_0_86_245
*11074 FILLER_0_86_251
*11075 FILLER_0_86_253
*11076 FILLER_0_86_265
*11077 FILLER_0_86_27
*11078 FILLER_0_86_277
*11079 FILLER_0_86_289
*11080 FILLER_0_86_29
*11081 FILLER_0_86_3
*11082 FILLER_0_86_301
*11083 FILLER_0_86_307
*11084 FILLER_0_86_309
*11085 FILLER_0_86_321
*11086 FILLER_0_86_333
*11087 FILLER_0_86_345
*11088 FILLER_0_86_357
*11089 FILLER_0_86_363
*11090 FILLER_0_86_365
*11091 FILLER_0_86_377
*11092 FILLER_0_86_389
*11093 FILLER_0_86_401
*11094 FILLER_0_86_41
*11095 FILLER_0_86_413
*11096 FILLER_0_86_419
*11097 FILLER_0_86_421
*11098 FILLER_0_86_433
*11099 FILLER_0_86_445
*11100 FILLER_0_86_457
*11101 FILLER_0_86_469
*11102 FILLER_0_86_475
*11103 FILLER_0_86_477
*11104 FILLER_0_86_489
*11105 FILLER_0_86_501
*11106 FILLER_0_86_513
*11107 FILLER_0_86_525
*11108 FILLER_0_86_53
*11109 FILLER_0_86_531
*11110 FILLER_0_86_533
*11111 FILLER_0_86_545
*11112 FILLER_0_86_557
*11113 FILLER_0_86_569
*11114 FILLER_0_86_581
*11115 FILLER_0_86_587
*11116 FILLER_0_86_589
*11117 FILLER_0_86_601
*11118 FILLER_0_86_613
*11119 FILLER_0_86_625
*11120 FILLER_0_86_637
*11121 FILLER_0_86_643
*11122 FILLER_0_86_645
*11123 FILLER_0_86_65
*11124 FILLER_0_86_657
*11125 FILLER_0_86_669
*11126 FILLER_0_86_681
*11127 FILLER_0_86_693
*11128 FILLER_0_86_699
*11129 FILLER_0_86_701
*11130 FILLER_0_86_713
*11131 FILLER_0_86_725
*11132 FILLER_0_86_737
*11133 FILLER_0_86_749
*11134 FILLER_0_86_755
*11135 FILLER_0_86_757
*11136 FILLER_0_86_769
*11137 FILLER_0_86_77
*11138 FILLER_0_86_781
*11139 FILLER_0_86_793
*11140 FILLER_0_86_805
*11141 FILLER_0_86_811
*11142 FILLER_0_86_813
*11143 FILLER_0_86_821
*11144 FILLER_0_86_83
*11145 FILLER_0_86_85
*11146 FILLER_0_86_97
*11147 FILLER_0_87_105
*11148 FILLER_0_87_111
*11149 FILLER_0_87_113
*11150 FILLER_0_87_125
*11151 FILLER_0_87_137
*11152 FILLER_0_87_149
*11153 FILLER_0_87_15
*11154 FILLER_0_87_161
*11155 FILLER_0_87_167
*11156 FILLER_0_87_169
*11157 FILLER_0_87_181
*11158 FILLER_0_87_193
*11159 FILLER_0_87_205
*11160 FILLER_0_87_217
*11161 FILLER_0_87_223
*11162 FILLER_0_87_225
*11163 FILLER_0_87_237
*11164 FILLER_0_87_249
*11165 FILLER_0_87_261
*11166 FILLER_0_87_27
*11167 FILLER_0_87_273
*11168 FILLER_0_87_279
*11169 FILLER_0_87_281
*11170 FILLER_0_87_293
*11171 FILLER_0_87_3
*11172 FILLER_0_87_305
*11173 FILLER_0_87_317
*11174 FILLER_0_87_329
*11175 FILLER_0_87_335
*11176 FILLER_0_87_337
*11177 FILLER_0_87_349
*11178 FILLER_0_87_361
*11179 FILLER_0_87_373
*11180 FILLER_0_87_385
*11181 FILLER_0_87_39
*11182 FILLER_0_87_391
*11183 FILLER_0_87_393
*11184 FILLER_0_87_405
*11185 FILLER_0_87_417
*11186 FILLER_0_87_429
*11187 FILLER_0_87_441
*11188 FILLER_0_87_447
*11189 FILLER_0_87_449
*11190 FILLER_0_87_461
*11191 FILLER_0_87_473
*11192 FILLER_0_87_485
*11193 FILLER_0_87_497
*11194 FILLER_0_87_503
*11195 FILLER_0_87_505
*11196 FILLER_0_87_51
*11197 FILLER_0_87_517
*11198 FILLER_0_87_529
*11199 FILLER_0_87_541
*11200 FILLER_0_87_55
*11201 FILLER_0_87_553
*11202 FILLER_0_87_559
*11203 FILLER_0_87_561
*11204 FILLER_0_87_57
*11205 FILLER_0_87_573
*11206 FILLER_0_87_585
*11207 FILLER_0_87_597
*11208 FILLER_0_87_609
*11209 FILLER_0_87_615
*11210 FILLER_0_87_617
*11211 FILLER_0_87_629
*11212 FILLER_0_87_641
*11213 FILLER_0_87_653
*11214 FILLER_0_87_665
*11215 FILLER_0_87_671
*11216 FILLER_0_87_673
*11217 FILLER_0_87_685
*11218 FILLER_0_87_69
*11219 FILLER_0_87_697
*11220 FILLER_0_87_709
*11221 FILLER_0_87_721
*11222 FILLER_0_87_727
*11223 FILLER_0_87_729
*11224 FILLER_0_87_741
*11225 FILLER_0_87_753
*11226 FILLER_0_87_765
*11227 FILLER_0_87_777
*11228 FILLER_0_87_783
*11229 FILLER_0_87_785
*11230 FILLER_0_87_797
*11231 FILLER_0_87_809
*11232 FILLER_0_87_81
*11233 FILLER_0_87_821
*11234 FILLER_0_87_93
*11235 FILLER_0_88_109
*11236 FILLER_0_88_121
*11237 FILLER_0_88_133
*11238 FILLER_0_88_139
*11239 FILLER_0_88_141
*11240 FILLER_0_88_15
*11241 FILLER_0_88_153
*11242 FILLER_0_88_165
*11243 FILLER_0_88_177
*11244 FILLER_0_88_189
*11245 FILLER_0_88_195
*11246 FILLER_0_88_197
*11247 FILLER_0_88_209
*11248 FILLER_0_88_221
*11249 FILLER_0_88_233
*11250 FILLER_0_88_245
*11251 FILLER_0_88_251
*11252 FILLER_0_88_253
*11253 FILLER_0_88_265
*11254 FILLER_0_88_27
*11255 FILLER_0_88_277
*11256 FILLER_0_88_289
*11257 FILLER_0_88_29
*11258 FILLER_0_88_3
*11259 FILLER_0_88_301
*11260 FILLER_0_88_307
*11261 FILLER_0_88_309
*11262 FILLER_0_88_321
*11263 FILLER_0_88_333
*11264 FILLER_0_88_345
*11265 FILLER_0_88_357
*11266 FILLER_0_88_363
*11267 FILLER_0_88_365
*11268 FILLER_0_88_377
*11269 FILLER_0_88_389
*11270 FILLER_0_88_401
*11271 FILLER_0_88_41
*11272 FILLER_0_88_413
*11273 FILLER_0_88_419
*11274 FILLER_0_88_421
*11275 FILLER_0_88_433
*11276 FILLER_0_88_445
*11277 FILLER_0_88_457
*11278 FILLER_0_88_469
*11279 FILLER_0_88_475
*11280 FILLER_0_88_477
*11281 FILLER_0_88_489
*11282 FILLER_0_88_501
*11283 FILLER_0_88_513
*11284 FILLER_0_88_525
*11285 FILLER_0_88_53
*11286 FILLER_0_88_531
*11287 FILLER_0_88_533
*11288 FILLER_0_88_545
*11289 FILLER_0_88_557
*11290 FILLER_0_88_569
*11291 FILLER_0_88_581
*11292 FILLER_0_88_587
*11293 FILLER_0_88_589
*11294 FILLER_0_88_601
*11295 FILLER_0_88_613
*11296 FILLER_0_88_625
*11297 FILLER_0_88_637
*11298 FILLER_0_88_643
*11299 FILLER_0_88_645
*11300 FILLER_0_88_65
*11301 FILLER_0_88_657
*11302 FILLER_0_88_669
*11303 FILLER_0_88_681
*11304 FILLER_0_88_693
*11305 FILLER_0_88_699
*11306 FILLER_0_88_701
*11307 FILLER_0_88_713
*11308 FILLER_0_88_725
*11309 FILLER_0_88_737
*11310 FILLER_0_88_749
*11311 FILLER_0_88_755
*11312 FILLER_0_88_757
*11313 FILLER_0_88_769
*11314 FILLER_0_88_77
*11315 FILLER_0_88_781
*11316 FILLER_0_88_793
*11317 FILLER_0_88_805
*11318 FILLER_0_88_811
*11319 FILLER_0_88_813
*11320 FILLER_0_88_821
*11321 FILLER_0_88_83
*11322 FILLER_0_88_85
*11323 FILLER_0_88_97
*11324 FILLER_0_89_105
*11325 FILLER_0_89_111
*11326 FILLER_0_89_113
*11327 FILLER_0_89_125
*11328 FILLER_0_89_137
*11329 FILLER_0_89_149
*11330 FILLER_0_89_15
*11331 FILLER_0_89_161
*11332 FILLER_0_89_167
*11333 FILLER_0_89_169
*11334 FILLER_0_89_181
*11335 FILLER_0_89_193
*11336 FILLER_0_89_205
*11337 FILLER_0_89_217
*11338 FILLER_0_89_223
*11339 FILLER_0_89_225
*11340 FILLER_0_89_237
*11341 FILLER_0_89_249
*11342 FILLER_0_89_261
*11343 FILLER_0_89_27
*11344 FILLER_0_89_273
*11345 FILLER_0_89_279
*11346 FILLER_0_89_281
*11347 FILLER_0_89_293
*11348 FILLER_0_89_3
*11349 FILLER_0_89_305
*11350 FILLER_0_89_317
*11351 FILLER_0_89_329
*11352 FILLER_0_89_335
*11353 FILLER_0_89_337
*11354 FILLER_0_89_349
*11355 FILLER_0_89_361
*11356 FILLER_0_89_373
*11357 FILLER_0_89_385
*11358 FILLER_0_89_39
*11359 FILLER_0_89_391
*11360 FILLER_0_89_393
*11361 FILLER_0_89_405
*11362 FILLER_0_89_417
*11363 FILLER_0_89_429
*11364 FILLER_0_89_441
*11365 FILLER_0_89_447
*11366 FILLER_0_89_449
*11367 FILLER_0_89_461
*11368 FILLER_0_89_473
*11369 FILLER_0_89_485
*11370 FILLER_0_89_497
*11371 FILLER_0_89_503
*11372 FILLER_0_89_505
*11373 FILLER_0_89_51
*11374 FILLER_0_89_517
*11375 FILLER_0_89_529
*11376 FILLER_0_89_541
*11377 FILLER_0_89_55
*11378 FILLER_0_89_553
*11379 FILLER_0_89_559
*11380 FILLER_0_89_561
*11381 FILLER_0_89_57
*11382 FILLER_0_89_573
*11383 FILLER_0_89_585
*11384 FILLER_0_89_597
*11385 FILLER_0_89_609
*11386 FILLER_0_89_615
*11387 FILLER_0_89_617
*11388 FILLER_0_89_629
*11389 FILLER_0_89_641
*11390 FILLER_0_89_653
*11391 FILLER_0_89_665
*11392 FILLER_0_89_671
*11393 FILLER_0_89_673
*11394 FILLER_0_89_685
*11395 FILLER_0_89_69
*11396 FILLER_0_89_697
*11397 FILLER_0_89_709
*11398 FILLER_0_89_721
*11399 FILLER_0_89_727
*11400 FILLER_0_89_729
*11401 FILLER_0_89_741
*11402 FILLER_0_89_753
*11403 FILLER_0_89_765
*11404 FILLER_0_89_777
*11405 FILLER_0_89_783
*11406 FILLER_0_89_785
*11407 FILLER_0_89_797
*11408 FILLER_0_89_809
*11409 FILLER_0_89_81
*11410 FILLER_0_89_821
*11411 FILLER_0_89_93
*11412 FILLER_0_8_109
*11413 FILLER_0_8_121
*11414 FILLER_0_8_133
*11415 FILLER_0_8_139
*11416 FILLER_0_8_141
*11417 FILLER_0_8_15
*11418 FILLER_0_8_153
*11419 FILLER_0_8_165
*11420 FILLER_0_8_177
*11421 FILLER_0_8_189
*11422 FILLER_0_8_195
*11423 FILLER_0_8_197
*11424 FILLER_0_8_209
*11425 FILLER_0_8_221
*11426 FILLER_0_8_233
*11427 FILLER_0_8_245
*11428 FILLER_0_8_251
*11429 FILLER_0_8_253
*11430 FILLER_0_8_265
*11431 FILLER_0_8_27
*11432 FILLER_0_8_277
*11433 FILLER_0_8_289
*11434 FILLER_0_8_29
*11435 FILLER_0_8_3
*11436 FILLER_0_8_301
*11437 FILLER_0_8_307
*11438 FILLER_0_8_309
*11439 FILLER_0_8_321
*11440 FILLER_0_8_333
*11441 FILLER_0_8_345
*11442 FILLER_0_8_357
*11443 FILLER_0_8_363
*11444 FILLER_0_8_365
*11445 FILLER_0_8_377
*11446 FILLER_0_8_389
*11447 FILLER_0_8_401
*11448 FILLER_0_8_41
*11449 FILLER_0_8_413
*11450 FILLER_0_8_419
*11451 FILLER_0_8_421
*11452 FILLER_0_8_433
*11453 FILLER_0_8_445
*11454 FILLER_0_8_457
*11455 FILLER_0_8_469
*11456 FILLER_0_8_475
*11457 FILLER_0_8_477
*11458 FILLER_0_8_489
*11459 FILLER_0_8_501
*11460 FILLER_0_8_513
*11461 FILLER_0_8_525
*11462 FILLER_0_8_53
*11463 FILLER_0_8_531
*11464 FILLER_0_8_533
*11465 FILLER_0_8_545
*11466 FILLER_0_8_557
*11467 FILLER_0_8_569
*11468 FILLER_0_8_581
*11469 FILLER_0_8_587
*11470 FILLER_0_8_589
*11471 FILLER_0_8_601
*11472 FILLER_0_8_613
*11473 FILLER_0_8_625
*11474 FILLER_0_8_637
*11475 FILLER_0_8_643
*11476 FILLER_0_8_645
*11477 FILLER_0_8_65
*11478 FILLER_0_8_657
*11479 FILLER_0_8_669
*11480 FILLER_0_8_681
*11481 FILLER_0_8_693
*11482 FILLER_0_8_699
*11483 FILLER_0_8_701
*11484 FILLER_0_8_713
*11485 FILLER_0_8_725
*11486 FILLER_0_8_737
*11487 FILLER_0_8_749
*11488 FILLER_0_8_755
*11489 FILLER_0_8_757
*11490 FILLER_0_8_769
*11491 FILLER_0_8_77
*11492 FILLER_0_8_781
*11493 FILLER_0_8_793
*11494 FILLER_0_8_805
*11495 FILLER_0_8_811
*11496 FILLER_0_8_813
*11497 FILLER_0_8_821
*11498 FILLER_0_8_83
*11499 FILLER_0_8_85
*11500 FILLER_0_8_97
*11501 FILLER_0_90_109
*11502 FILLER_0_90_121
*11503 FILLER_0_90_133
*11504 FILLER_0_90_139
*11505 FILLER_0_90_141
*11506 FILLER_0_90_15
*11507 FILLER_0_90_153
*11508 FILLER_0_90_165
*11509 FILLER_0_90_177
*11510 FILLER_0_90_189
*11511 FILLER_0_90_195
*11512 FILLER_0_90_197
*11513 FILLER_0_90_209
*11514 FILLER_0_90_221
*11515 FILLER_0_90_233
*11516 FILLER_0_90_245
*11517 FILLER_0_90_251
*11518 FILLER_0_90_253
*11519 FILLER_0_90_265
*11520 FILLER_0_90_27
*11521 FILLER_0_90_277
*11522 FILLER_0_90_289
*11523 FILLER_0_90_29
*11524 FILLER_0_90_3
*11525 FILLER_0_90_301
*11526 FILLER_0_90_307
*11527 FILLER_0_90_309
*11528 FILLER_0_90_321
*11529 FILLER_0_90_333
*11530 FILLER_0_90_345
*11531 FILLER_0_90_357
*11532 FILLER_0_90_363
*11533 FILLER_0_90_365
*11534 FILLER_0_90_377
*11535 FILLER_0_90_389
*11536 FILLER_0_90_401
*11537 FILLER_0_90_41
*11538 FILLER_0_90_413
*11539 FILLER_0_90_419
*11540 FILLER_0_90_421
*11541 FILLER_0_90_433
*11542 FILLER_0_90_445
*11543 FILLER_0_90_457
*11544 FILLER_0_90_469
*11545 FILLER_0_90_475
*11546 FILLER_0_90_477
*11547 FILLER_0_90_489
*11548 FILLER_0_90_501
*11549 FILLER_0_90_513
*11550 FILLER_0_90_525
*11551 FILLER_0_90_53
*11552 FILLER_0_90_531
*11553 FILLER_0_90_533
*11554 FILLER_0_90_545
*11555 FILLER_0_90_557
*11556 FILLER_0_90_569
*11557 FILLER_0_90_581
*11558 FILLER_0_90_587
*11559 FILLER_0_90_589
*11560 FILLER_0_90_601
*11561 FILLER_0_90_613
*11562 FILLER_0_90_625
*11563 FILLER_0_90_637
*11564 FILLER_0_90_643
*11565 FILLER_0_90_645
*11566 FILLER_0_90_65
*11567 FILLER_0_90_657
*11568 FILLER_0_90_669
*11569 FILLER_0_90_681
*11570 FILLER_0_90_693
*11571 FILLER_0_90_699
*11572 FILLER_0_90_701
*11573 FILLER_0_90_713
*11574 FILLER_0_90_725
*11575 FILLER_0_90_737
*11576 FILLER_0_90_749
*11577 FILLER_0_90_755
*11578 FILLER_0_90_757
*11579 FILLER_0_90_769
*11580 FILLER_0_90_77
*11581 FILLER_0_90_781
*11582 FILLER_0_90_793
*11583 FILLER_0_90_805
*11584 FILLER_0_90_811
*11585 FILLER_0_90_813
*11586 FILLER_0_90_821
*11587 FILLER_0_90_83
*11588 FILLER_0_90_85
*11589 FILLER_0_90_97
*11590 FILLER_0_91_105
*11591 FILLER_0_91_111
*11592 FILLER_0_91_113
*11593 FILLER_0_91_125
*11594 FILLER_0_91_137
*11595 FILLER_0_91_149
*11596 FILLER_0_91_15
*11597 FILLER_0_91_161
*11598 FILLER_0_91_167
*11599 FILLER_0_91_169
*11600 FILLER_0_91_181
*11601 FILLER_0_91_193
*11602 FILLER_0_91_205
*11603 FILLER_0_91_217
*11604 FILLER_0_91_223
*11605 FILLER_0_91_225
*11606 FILLER_0_91_237
*11607 FILLER_0_91_249
*11608 FILLER_0_91_261
*11609 FILLER_0_91_27
*11610 FILLER_0_91_273
*11611 FILLER_0_91_279
*11612 FILLER_0_91_281
*11613 FILLER_0_91_293
*11614 FILLER_0_91_3
*11615 FILLER_0_91_305
*11616 FILLER_0_91_317
*11617 FILLER_0_91_329
*11618 FILLER_0_91_335
*11619 FILLER_0_91_337
*11620 FILLER_0_91_349
*11621 FILLER_0_91_361
*11622 FILLER_0_91_373
*11623 FILLER_0_91_385
*11624 FILLER_0_91_39
*11625 FILLER_0_91_391
*11626 FILLER_0_91_393
*11627 FILLER_0_91_405
*11628 FILLER_0_91_417
*11629 FILLER_0_91_429
*11630 FILLER_0_91_441
*11631 FILLER_0_91_447
*11632 FILLER_0_91_449
*11633 FILLER_0_91_461
*11634 FILLER_0_91_473
*11635 FILLER_0_91_485
*11636 FILLER_0_91_497
*11637 FILLER_0_91_503
*11638 FILLER_0_91_505
*11639 FILLER_0_91_51
*11640 FILLER_0_91_517
*11641 FILLER_0_91_529
*11642 FILLER_0_91_541
*11643 FILLER_0_91_55
*11644 FILLER_0_91_553
*11645 FILLER_0_91_559
*11646 FILLER_0_91_561
*11647 FILLER_0_91_57
*11648 FILLER_0_91_573
*11649 FILLER_0_91_585
*11650 FILLER_0_91_597
*11651 FILLER_0_91_609
*11652 FILLER_0_91_615
*11653 FILLER_0_91_617
*11654 FILLER_0_91_629
*11655 FILLER_0_91_641
*11656 FILLER_0_91_653
*11657 FILLER_0_91_665
*11658 FILLER_0_91_671
*11659 FILLER_0_91_673
*11660 FILLER_0_91_685
*11661 FILLER_0_91_69
*11662 FILLER_0_91_697
*11663 FILLER_0_91_709
*11664 FILLER_0_91_721
*11665 FILLER_0_91_727
*11666 FILLER_0_91_729
*11667 FILLER_0_91_741
*11668 FILLER_0_91_753
*11669 FILLER_0_91_765
*11670 FILLER_0_91_777
*11671 FILLER_0_91_783
*11672 FILLER_0_91_785
*11673 FILLER_0_91_797
*11674 FILLER_0_91_809
*11675 FILLER_0_91_81
*11676 FILLER_0_91_817
*11677 FILLER_0_91_93
*11678 FILLER_0_92_109
*11679 FILLER_0_92_121
*11680 FILLER_0_92_133
*11681 FILLER_0_92_139
*11682 FILLER_0_92_141
*11683 FILLER_0_92_15
*11684 FILLER_0_92_153
*11685 FILLER_0_92_165
*11686 FILLER_0_92_177
*11687 FILLER_0_92_189
*11688 FILLER_0_92_195
*11689 FILLER_0_92_197
*11690 FILLER_0_92_209
*11691 FILLER_0_92_221
*11692 FILLER_0_92_233
*11693 FILLER_0_92_245
*11694 FILLER_0_92_251
*11695 FILLER_0_92_253
*11696 FILLER_0_92_265
*11697 FILLER_0_92_27
*11698 FILLER_0_92_277
*11699 FILLER_0_92_289
*11700 FILLER_0_92_29
*11701 FILLER_0_92_3
*11702 FILLER_0_92_301
*11703 FILLER_0_92_307
*11704 FILLER_0_92_309
*11705 FILLER_0_92_321
*11706 FILLER_0_92_333
*11707 FILLER_0_92_345
*11708 FILLER_0_92_357
*11709 FILLER_0_92_363
*11710 FILLER_0_92_365
*11711 FILLER_0_92_377
*11712 FILLER_0_92_389
*11713 FILLER_0_92_401
*11714 FILLER_0_92_41
*11715 FILLER_0_92_413
*11716 FILLER_0_92_419
*11717 FILLER_0_92_421
*11718 FILLER_0_92_433
*11719 FILLER_0_92_445
*11720 FILLER_0_92_457
*11721 FILLER_0_92_469
*11722 FILLER_0_92_475
*11723 FILLER_0_92_477
*11724 FILLER_0_92_489
*11725 FILLER_0_92_501
*11726 FILLER_0_92_513
*11727 FILLER_0_92_525
*11728 FILLER_0_92_53
*11729 FILLER_0_92_531
*11730 FILLER_0_92_533
*11731 FILLER_0_92_545
*11732 FILLER_0_92_557
*11733 FILLER_0_92_569
*11734 FILLER_0_92_581
*11735 FILLER_0_92_587
*11736 FILLER_0_92_589
*11737 FILLER_0_92_601
*11738 FILLER_0_92_613
*11739 FILLER_0_92_625
*11740 FILLER_0_92_637
*11741 FILLER_0_92_643
*11742 FILLER_0_92_645
*11743 FILLER_0_92_65
*11744 FILLER_0_92_657
*11745 FILLER_0_92_669
*11746 FILLER_0_92_681
*11747 FILLER_0_92_693
*11748 FILLER_0_92_699
*11749 FILLER_0_92_701
*11750 FILLER_0_92_713
*11751 FILLER_0_92_725
*11752 FILLER_0_92_737
*11753 FILLER_0_92_749
*11754 FILLER_0_92_755
*11755 FILLER_0_92_757
*11756 FILLER_0_92_769
*11757 FILLER_0_92_77
*11758 FILLER_0_92_781
*11759 FILLER_0_92_793
*11760 FILLER_0_92_805
*11761 FILLER_0_92_811
*11762 FILLER_0_92_813
*11763 FILLER_0_92_821
*11764 FILLER_0_92_83
*11765 FILLER_0_92_85
*11766 FILLER_0_92_97
*11767 FILLER_0_93_105
*11768 FILLER_0_93_111
*11769 FILLER_0_93_113
*11770 FILLER_0_93_125
*11771 FILLER_0_93_137
*11772 FILLER_0_93_149
*11773 FILLER_0_93_15
*11774 FILLER_0_93_161
*11775 FILLER_0_93_167
*11776 FILLER_0_93_169
*11777 FILLER_0_93_181
*11778 FILLER_0_93_193
*11779 FILLER_0_93_205
*11780 FILLER_0_93_217
*11781 FILLER_0_93_223
*11782 FILLER_0_93_225
*11783 FILLER_0_93_237
*11784 FILLER_0_93_249
*11785 FILLER_0_93_261
*11786 FILLER_0_93_27
*11787 FILLER_0_93_273
*11788 FILLER_0_93_279
*11789 FILLER_0_93_281
*11790 FILLER_0_93_293
*11791 FILLER_0_93_3
*11792 FILLER_0_93_305
*11793 FILLER_0_93_317
*11794 FILLER_0_93_329
*11795 FILLER_0_93_335
*11796 FILLER_0_93_337
*11797 FILLER_0_93_349
*11798 FILLER_0_93_361
*11799 FILLER_0_93_373
*11800 FILLER_0_93_385
*11801 FILLER_0_93_39
*11802 FILLER_0_93_391
*11803 FILLER_0_93_393
*11804 FILLER_0_93_405
*11805 FILLER_0_93_417
*11806 FILLER_0_93_429
*11807 FILLER_0_93_441
*11808 FILLER_0_93_447
*11809 FILLER_0_93_449
*11810 FILLER_0_93_461
*11811 FILLER_0_93_473
*11812 FILLER_0_93_485
*11813 FILLER_0_93_497
*11814 FILLER_0_93_503
*11815 FILLER_0_93_505
*11816 FILLER_0_93_51
*11817 FILLER_0_93_517
*11818 FILLER_0_93_529
*11819 FILLER_0_93_541
*11820 FILLER_0_93_55
*11821 FILLER_0_93_553
*11822 FILLER_0_93_559
*11823 FILLER_0_93_561
*11824 FILLER_0_93_57
*11825 FILLER_0_93_573
*11826 FILLER_0_93_585
*11827 FILLER_0_93_597
*11828 FILLER_0_93_609
*11829 FILLER_0_93_615
*11830 FILLER_0_93_617
*11831 FILLER_0_93_629
*11832 FILLER_0_93_641
*11833 FILLER_0_93_653
*11834 FILLER_0_93_665
*11835 FILLER_0_93_671
*11836 FILLER_0_93_673
*11837 FILLER_0_93_685
*11838 FILLER_0_93_69
*11839 FILLER_0_93_697
*11840 FILLER_0_93_709
*11841 FILLER_0_93_721
*11842 FILLER_0_93_727
*11843 FILLER_0_93_729
*11844 FILLER_0_93_741
*11845 FILLER_0_93_753
*11846 FILLER_0_93_765
*11847 FILLER_0_93_777
*11848 FILLER_0_93_783
*11849 FILLER_0_93_785
*11850 FILLER_0_93_797
*11851 FILLER_0_93_809
*11852 FILLER_0_93_81
*11853 FILLER_0_93_821
*11854 FILLER_0_93_93
*11855 FILLER_0_94_109
*11856 FILLER_0_94_121
*11857 FILLER_0_94_133
*11858 FILLER_0_94_139
*11859 FILLER_0_94_141
*11860 FILLER_0_94_15
*11861 FILLER_0_94_153
*11862 FILLER_0_94_165
*11863 FILLER_0_94_177
*11864 FILLER_0_94_189
*11865 FILLER_0_94_195
*11866 FILLER_0_94_197
*11867 FILLER_0_94_209
*11868 FILLER_0_94_221
*11869 FILLER_0_94_233
*11870 FILLER_0_94_245
*11871 FILLER_0_94_251
*11872 FILLER_0_94_253
*11873 FILLER_0_94_265
*11874 FILLER_0_94_27
*11875 FILLER_0_94_277
*11876 FILLER_0_94_289
*11877 FILLER_0_94_29
*11878 FILLER_0_94_3
*11879 FILLER_0_94_301
*11880 FILLER_0_94_307
*11881 FILLER_0_94_309
*11882 FILLER_0_94_321
*11883 FILLER_0_94_333
*11884 FILLER_0_94_345
*11885 FILLER_0_94_357
*11886 FILLER_0_94_363
*11887 FILLER_0_94_365
*11888 FILLER_0_94_377
*11889 FILLER_0_94_389
*11890 FILLER_0_94_401
*11891 FILLER_0_94_41
*11892 FILLER_0_94_413
*11893 FILLER_0_94_419
*11894 FILLER_0_94_421
*11895 FILLER_0_94_433
*11896 FILLER_0_94_445
*11897 FILLER_0_94_457
*11898 FILLER_0_94_469
*11899 FILLER_0_94_475
*11900 FILLER_0_94_477
*11901 FILLER_0_94_489
*11902 FILLER_0_94_501
*11903 FILLER_0_94_513
*11904 FILLER_0_94_525
*11905 FILLER_0_94_53
*11906 FILLER_0_94_531
*11907 FILLER_0_94_533
*11908 FILLER_0_94_545
*11909 FILLER_0_94_557
*11910 FILLER_0_94_569
*11911 FILLER_0_94_581
*11912 FILLER_0_94_587
*11913 FILLER_0_94_589
*11914 FILLER_0_94_601
*11915 FILLER_0_94_613
*11916 FILLER_0_94_625
*11917 FILLER_0_94_637
*11918 FILLER_0_94_643
*11919 FILLER_0_94_645
*11920 FILLER_0_94_65
*11921 FILLER_0_94_657
*11922 FILLER_0_94_669
*11923 FILLER_0_94_681
*11924 FILLER_0_94_693
*11925 FILLER_0_94_699
*11926 FILLER_0_94_701
*11927 FILLER_0_94_713
*11928 FILLER_0_94_725
*11929 FILLER_0_94_737
*11930 FILLER_0_94_749
*11931 FILLER_0_94_755
*11932 FILLER_0_94_757
*11933 FILLER_0_94_769
*11934 FILLER_0_94_77
*11935 FILLER_0_94_781
*11936 FILLER_0_94_793
*11937 FILLER_0_94_805
*11938 FILLER_0_94_811
*11939 FILLER_0_94_813
*11940 FILLER_0_94_821
*11941 FILLER_0_94_83
*11942 FILLER_0_94_85
*11943 FILLER_0_94_97
*11944 FILLER_0_95_105
*11945 FILLER_0_95_111
*11946 FILLER_0_95_113
*11947 FILLER_0_95_125
*11948 FILLER_0_95_137
*11949 FILLER_0_95_149
*11950 FILLER_0_95_15
*11951 FILLER_0_95_161
*11952 FILLER_0_95_167
*11953 FILLER_0_95_169
*11954 FILLER_0_95_181
*11955 FILLER_0_95_193
*11956 FILLER_0_95_205
*11957 FILLER_0_95_217
*11958 FILLER_0_95_223
*11959 FILLER_0_95_225
*11960 FILLER_0_95_237
*11961 FILLER_0_95_249
*11962 FILLER_0_95_261
*11963 FILLER_0_95_27
*11964 FILLER_0_95_273
*11965 FILLER_0_95_279
*11966 FILLER_0_95_281
*11967 FILLER_0_95_293
*11968 FILLER_0_95_3
*11969 FILLER_0_95_305
*11970 FILLER_0_95_317
*11971 FILLER_0_95_329
*11972 FILLER_0_95_335
*11973 FILLER_0_95_337
*11974 FILLER_0_95_349
*11975 FILLER_0_95_361
*11976 FILLER_0_95_373
*11977 FILLER_0_95_385
*11978 FILLER_0_95_39
*11979 FILLER_0_95_391
*11980 FILLER_0_95_393
*11981 FILLER_0_95_405
*11982 FILLER_0_95_417
*11983 FILLER_0_95_429
*11984 FILLER_0_95_441
*11985 FILLER_0_95_447
*11986 FILLER_0_95_449
*11987 FILLER_0_95_461
*11988 FILLER_0_95_473
*11989 FILLER_0_95_485
*11990 FILLER_0_95_497
*11991 FILLER_0_95_503
*11992 FILLER_0_95_505
*11993 FILLER_0_95_51
*11994 FILLER_0_95_517
*11995 FILLER_0_95_529
*11996 FILLER_0_95_541
*11997 FILLER_0_95_55
*11998 FILLER_0_95_553
*11999 FILLER_0_95_559
*12000 FILLER_0_95_561
*12001 FILLER_0_95_57
*12002 FILLER_0_95_573
*12003 FILLER_0_95_585
*12004 FILLER_0_95_597
*12005 FILLER_0_95_609
*12006 FILLER_0_95_615
*12007 FILLER_0_95_617
*12008 FILLER_0_95_629
*12009 FILLER_0_95_641
*12010 FILLER_0_95_653
*12011 FILLER_0_95_665
*12012 FILLER_0_95_671
*12013 FILLER_0_95_673
*12014 FILLER_0_95_685
*12015 FILLER_0_95_69
*12016 FILLER_0_95_697
*12017 FILLER_0_95_709
*12018 FILLER_0_95_721
*12019 FILLER_0_95_727
*12020 FILLER_0_95_729
*12021 FILLER_0_95_741
*12022 FILLER_0_95_753
*12023 FILLER_0_95_765
*12024 FILLER_0_95_777
*12025 FILLER_0_95_783
*12026 FILLER_0_95_785
*12027 FILLER_0_95_797
*12028 FILLER_0_95_809
*12029 FILLER_0_95_81
*12030 FILLER_0_95_821
*12031 FILLER_0_95_93
*12032 FILLER_0_96_109
*12033 FILLER_0_96_121
*12034 FILLER_0_96_133
*12035 FILLER_0_96_139
*12036 FILLER_0_96_141
*12037 FILLER_0_96_15
*12038 FILLER_0_96_153
*12039 FILLER_0_96_165
*12040 FILLER_0_96_177
*12041 FILLER_0_96_189
*12042 FILLER_0_96_195
*12043 FILLER_0_96_197
*12044 FILLER_0_96_209
*12045 FILLER_0_96_221
*12046 FILLER_0_96_233
*12047 FILLER_0_96_245
*12048 FILLER_0_96_251
*12049 FILLER_0_96_253
*12050 FILLER_0_96_265
*12051 FILLER_0_96_27
*12052 FILLER_0_96_277
*12053 FILLER_0_96_289
*12054 FILLER_0_96_29
*12055 FILLER_0_96_3
*12056 FILLER_0_96_301
*12057 FILLER_0_96_307
*12058 FILLER_0_96_309
*12059 FILLER_0_96_321
*12060 FILLER_0_96_333
*12061 FILLER_0_96_345
*12062 FILLER_0_96_357
*12063 FILLER_0_96_363
*12064 FILLER_0_96_365
*12065 FILLER_0_96_377
*12066 FILLER_0_96_389
*12067 FILLER_0_96_401
*12068 FILLER_0_96_41
*12069 FILLER_0_96_413
*12070 FILLER_0_96_419
*12071 FILLER_0_96_421
*12072 FILLER_0_96_433
*12073 FILLER_0_96_445
*12074 FILLER_0_96_457
*12075 FILLER_0_96_469
*12076 FILLER_0_96_475
*12077 FILLER_0_96_477
*12078 FILLER_0_96_489
*12079 FILLER_0_96_501
*12080 FILLER_0_96_513
*12081 FILLER_0_96_525
*12082 FILLER_0_96_53
*12083 FILLER_0_96_531
*12084 FILLER_0_96_533
*12085 FILLER_0_96_545
*12086 FILLER_0_96_557
*12087 FILLER_0_96_569
*12088 FILLER_0_96_581
*12089 FILLER_0_96_587
*12090 FILLER_0_96_589
*12091 FILLER_0_96_601
*12092 FILLER_0_96_613
*12093 FILLER_0_96_625
*12094 FILLER_0_96_637
*12095 FILLER_0_96_643
*12096 FILLER_0_96_645
*12097 FILLER_0_96_65
*12098 FILLER_0_96_657
*12099 FILLER_0_96_669
*12100 FILLER_0_96_681
*12101 FILLER_0_96_693
*12102 FILLER_0_96_699
*12103 FILLER_0_96_701
*12104 FILLER_0_96_713
*12105 FILLER_0_96_725
*12106 FILLER_0_96_737
*12107 FILLER_0_96_749
*12108 FILLER_0_96_755
*12109 FILLER_0_96_757
*12110 FILLER_0_96_769
*12111 FILLER_0_96_77
*12112 FILLER_0_96_781
*12113 FILLER_0_96_793
*12114 FILLER_0_96_805
*12115 FILLER_0_96_811
*12116 FILLER_0_96_813
*12117 FILLER_0_96_821
*12118 FILLER_0_96_83
*12119 FILLER_0_96_85
*12120 FILLER_0_96_97
*12121 FILLER_0_97_105
*12122 FILLER_0_97_111
*12123 FILLER_0_97_113
*12124 FILLER_0_97_125
*12125 FILLER_0_97_137
*12126 FILLER_0_97_149
*12127 FILLER_0_97_15
*12128 FILLER_0_97_161
*12129 FILLER_0_97_167
*12130 FILLER_0_97_169
*12131 FILLER_0_97_181
*12132 FILLER_0_97_193
*12133 FILLER_0_97_205
*12134 FILLER_0_97_217
*12135 FILLER_0_97_223
*12136 FILLER_0_97_225
*12137 FILLER_0_97_237
*12138 FILLER_0_97_249
*12139 FILLER_0_97_261
*12140 FILLER_0_97_27
*12141 FILLER_0_97_273
*12142 FILLER_0_97_279
*12143 FILLER_0_97_281
*12144 FILLER_0_97_293
*12145 FILLER_0_97_3
*12146 FILLER_0_97_305
*12147 FILLER_0_97_317
*12148 FILLER_0_97_329
*12149 FILLER_0_97_335
*12150 FILLER_0_97_337
*12151 FILLER_0_97_349
*12152 FILLER_0_97_361
*12153 FILLER_0_97_373
*12154 FILLER_0_97_385
*12155 FILLER_0_97_39
*12156 FILLER_0_97_391
*12157 FILLER_0_97_393
*12158 FILLER_0_97_405
*12159 FILLER_0_97_417
*12160 FILLER_0_97_429
*12161 FILLER_0_97_441
*12162 FILLER_0_97_447
*12163 FILLER_0_97_449
*12164 FILLER_0_97_461
*12165 FILLER_0_97_473
*12166 FILLER_0_97_485
*12167 FILLER_0_97_497
*12168 FILLER_0_97_503
*12169 FILLER_0_97_505
*12170 FILLER_0_97_51
*12171 FILLER_0_97_517
*12172 FILLER_0_97_529
*12173 FILLER_0_97_541
*12174 FILLER_0_97_55
*12175 FILLER_0_97_553
*12176 FILLER_0_97_559
*12177 FILLER_0_97_561
*12178 FILLER_0_97_57
*12179 FILLER_0_97_573
*12180 FILLER_0_97_585
*12181 FILLER_0_97_597
*12182 FILLER_0_97_609
*12183 FILLER_0_97_615
*12184 FILLER_0_97_617
*12185 FILLER_0_97_629
*12186 FILLER_0_97_641
*12187 FILLER_0_97_653
*12188 FILLER_0_97_665
*12189 FILLER_0_97_671
*12190 FILLER_0_97_673
*12191 FILLER_0_97_685
*12192 FILLER_0_97_69
*12193 FILLER_0_97_697
*12194 FILLER_0_97_709
*12195 FILLER_0_97_721
*12196 FILLER_0_97_727
*12197 FILLER_0_97_729
*12198 FILLER_0_97_741
*12199 FILLER_0_97_753
*12200 FILLER_0_97_765
*12201 FILLER_0_97_777
*12202 FILLER_0_97_783
*12203 FILLER_0_97_785
*12204 FILLER_0_97_797
*12205 FILLER_0_97_809
*12206 FILLER_0_97_81
*12207 FILLER_0_97_821
*12208 FILLER_0_97_93
*12209 FILLER_0_98_109
*12210 FILLER_0_98_121
*12211 FILLER_0_98_133
*12212 FILLER_0_98_139
*12213 FILLER_0_98_141
*12214 FILLER_0_98_15
*12215 FILLER_0_98_153
*12216 FILLER_0_98_165
*12217 FILLER_0_98_177
*12218 FILLER_0_98_189
*12219 FILLER_0_98_195
*12220 FILLER_0_98_197
*12221 FILLER_0_98_209
*12222 FILLER_0_98_221
*12223 FILLER_0_98_233
*12224 FILLER_0_98_245
*12225 FILLER_0_98_251
*12226 FILLER_0_98_253
*12227 FILLER_0_98_265
*12228 FILLER_0_98_27
*12229 FILLER_0_98_277
*12230 FILLER_0_98_289
*12231 FILLER_0_98_29
*12232 FILLER_0_98_3
*12233 FILLER_0_98_301
*12234 FILLER_0_98_307
*12235 FILLER_0_98_309
*12236 FILLER_0_98_321
*12237 FILLER_0_98_333
*12238 FILLER_0_98_345
*12239 FILLER_0_98_357
*12240 FILLER_0_98_363
*12241 FILLER_0_98_365
*12242 FILLER_0_98_377
*12243 FILLER_0_98_389
*12244 FILLER_0_98_401
*12245 FILLER_0_98_41
*12246 FILLER_0_98_413
*12247 FILLER_0_98_419
*12248 FILLER_0_98_421
*12249 FILLER_0_98_433
*12250 FILLER_0_98_445
*12251 FILLER_0_98_457
*12252 FILLER_0_98_469
*12253 FILLER_0_98_475
*12254 FILLER_0_98_477
*12255 FILLER_0_98_489
*12256 FILLER_0_98_501
*12257 FILLER_0_98_513
*12258 FILLER_0_98_525
*12259 FILLER_0_98_53
*12260 FILLER_0_98_531
*12261 FILLER_0_98_533
*12262 FILLER_0_98_545
*12263 FILLER_0_98_557
*12264 FILLER_0_98_569
*12265 FILLER_0_98_581
*12266 FILLER_0_98_587
*12267 FILLER_0_98_589
*12268 FILLER_0_98_601
*12269 FILLER_0_98_613
*12270 FILLER_0_98_625
*12271 FILLER_0_98_637
*12272 FILLER_0_98_643
*12273 FILLER_0_98_645
*12274 FILLER_0_98_65
*12275 FILLER_0_98_657
*12276 FILLER_0_98_669
*12277 FILLER_0_98_681
*12278 FILLER_0_98_693
*12279 FILLER_0_98_699
*12280 FILLER_0_98_701
*12281 FILLER_0_98_713
*12282 FILLER_0_98_725
*12283 FILLER_0_98_737
*12284 FILLER_0_98_749
*12285 FILLER_0_98_755
*12286 FILLER_0_98_757
*12287 FILLER_0_98_769
*12288 FILLER_0_98_77
*12289 FILLER_0_98_781
*12290 FILLER_0_98_793
*12291 FILLER_0_98_805
*12292 FILLER_0_98_811
*12293 FILLER_0_98_813
*12294 FILLER_0_98_821
*12295 FILLER_0_98_83
*12296 FILLER_0_98_85
*12297 FILLER_0_98_97
*12298 FILLER_0_99_105
*12299 FILLER_0_99_111
*12300 FILLER_0_99_113
*12301 FILLER_0_99_125
*12302 FILLER_0_99_137
*12303 FILLER_0_99_149
*12304 FILLER_0_99_15
*12305 FILLER_0_99_161
*12306 FILLER_0_99_167
*12307 FILLER_0_99_169
*12308 FILLER_0_99_181
*12309 FILLER_0_99_193
*12310 FILLER_0_99_205
*12311 FILLER_0_99_217
*12312 FILLER_0_99_223
*12313 FILLER_0_99_225
*12314 FILLER_0_99_237
*12315 FILLER_0_99_249
*12316 FILLER_0_99_261
*12317 FILLER_0_99_27
*12318 FILLER_0_99_273
*12319 FILLER_0_99_279
*12320 FILLER_0_99_281
*12321 FILLER_0_99_293
*12322 FILLER_0_99_3
*12323 FILLER_0_99_305
*12324 FILLER_0_99_317
*12325 FILLER_0_99_329
*12326 FILLER_0_99_335
*12327 FILLER_0_99_337
*12328 FILLER_0_99_349
*12329 FILLER_0_99_361
*12330 FILLER_0_99_373
*12331 FILLER_0_99_385
*12332 FILLER_0_99_39
*12333 FILLER_0_99_391
*12334 FILLER_0_99_393
*12335 FILLER_0_99_405
*12336 FILLER_0_99_417
*12337 FILLER_0_99_429
*12338 FILLER_0_99_441
*12339 FILLER_0_99_447
*12340 FILLER_0_99_449
*12341 FILLER_0_99_461
*12342 FILLER_0_99_473
*12343 FILLER_0_99_485
*12344 FILLER_0_99_497
*12345 FILLER_0_99_503
*12346 FILLER_0_99_505
*12347 FILLER_0_99_51
*12348 FILLER_0_99_517
*12349 FILLER_0_99_529
*12350 FILLER_0_99_541
*12351 FILLER_0_99_55
*12352 FILLER_0_99_553
*12353 FILLER_0_99_559
*12354 FILLER_0_99_561
*12355 FILLER_0_99_57
*12356 FILLER_0_99_573
*12357 FILLER_0_99_585
*12358 FILLER_0_99_597
*12359 FILLER_0_99_609
*12360 FILLER_0_99_615
*12361 FILLER_0_99_617
*12362 FILLER_0_99_629
*12363 FILLER_0_99_641
*12364 FILLER_0_99_653
*12365 FILLER_0_99_665
*12366 FILLER_0_99_671
*12367 FILLER_0_99_673
*12368 FILLER_0_99_685
*12369 FILLER_0_99_69
*12370 FILLER_0_99_697
*12371 FILLER_0_99_709
*12372 FILLER_0_99_721
*12373 FILLER_0_99_727
*12374 FILLER_0_99_729
*12375 FILLER_0_99_741
*12376 FILLER_0_99_753
*12377 FILLER_0_99_765
*12378 FILLER_0_99_777
*12379 FILLER_0_99_783
*12380 FILLER_0_99_785
*12381 FILLER_0_99_797
*12382 FILLER_0_99_809
*12383 FILLER_0_99_81
*12384 FILLER_0_99_821
*12385 FILLER_0_99_93
*12386 FILLER_0_9_105
*12387 FILLER_0_9_111
*12388 FILLER_0_9_113
*12389 FILLER_0_9_125
*12390 FILLER_0_9_137
*12391 FILLER_0_9_149
*12392 FILLER_0_9_15
*12393 FILLER_0_9_161
*12394 FILLER_0_9_167
*12395 FILLER_0_9_169
*12396 FILLER_0_9_181
*12397 FILLER_0_9_193
*12398 FILLER_0_9_205
*12399 FILLER_0_9_217
*12400 FILLER_0_9_223
*12401 FILLER_0_9_225
*12402 FILLER_0_9_237
*12403 FILLER_0_9_249
*12404 FILLER_0_9_261
*12405 FILLER_0_9_27
*12406 FILLER_0_9_273
*12407 FILLER_0_9_279
*12408 FILLER_0_9_281
*12409 FILLER_0_9_293
*12410 FILLER_0_9_3
*12411 FILLER_0_9_305
*12412 FILLER_0_9_317
*12413 FILLER_0_9_329
*12414 FILLER_0_9_335
*12415 FILLER_0_9_337
*12416 FILLER_0_9_349
*12417 FILLER_0_9_361
*12418 FILLER_0_9_373
*12419 FILLER_0_9_385
*12420 FILLER_0_9_39
*12421 FILLER_0_9_391
*12422 FILLER_0_9_393
*12423 FILLER_0_9_405
*12424 FILLER_0_9_417
*12425 FILLER_0_9_429
*12426 FILLER_0_9_441
*12427 FILLER_0_9_447
*12428 FILLER_0_9_449
*12429 FILLER_0_9_461
*12430 FILLER_0_9_473
*12431 FILLER_0_9_485
*12432 FILLER_0_9_497
*12433 FILLER_0_9_503
*12434 FILLER_0_9_505
*12435 FILLER_0_9_51
*12436 FILLER_0_9_517
*12437 FILLER_0_9_529
*12438 FILLER_0_9_541
*12439 FILLER_0_9_55
*12440 FILLER_0_9_553
*12441 FILLER_0_9_559
*12442 FILLER_0_9_561
*12443 FILLER_0_9_57
*12444 FILLER_0_9_573
*12445 FILLER_0_9_585
*12446 FILLER_0_9_597
*12447 FILLER_0_9_609
*12448 FILLER_0_9_615
*12449 FILLER_0_9_617
*12450 FILLER_0_9_629
*12451 FILLER_0_9_641
*12452 FILLER_0_9_653
*12453 FILLER_0_9_665
*12454 FILLER_0_9_671
*12455 FILLER_0_9_673
*12456 FILLER_0_9_685
*12457 FILLER_0_9_69
*12458 FILLER_0_9_697
*12459 FILLER_0_9_709
*12460 FILLER_0_9_721
*12461 FILLER_0_9_727
*12462 FILLER_0_9_729
*12463 FILLER_0_9_741
*12464 FILLER_0_9_753
*12465 FILLER_0_9_765
*12466 FILLER_0_9_777
*12467 FILLER_0_9_783
*12468 FILLER_0_9_785
*12469 FILLER_0_9_797
*12470 FILLER_0_9_809
*12471 FILLER_0_9_81
*12472 FILLER_0_9_821
*12473 FILLER_0_9_93
*12474 PHY_0
*12475 PHY_1
*12476 PHY_10
*12477 PHY_100
*12478 PHY_101
*12479 PHY_102
*12480 PHY_103
*12481 PHY_104
*12482 PHY_105
*12483 PHY_106
*12484 PHY_107
*12485 PHY_108
*12486 PHY_109
*12487 PHY_11
*12488 PHY_110
*12489 PHY_111
*12490 PHY_112
*12491 PHY_113
*12492 PHY_114
*12493 PHY_115
*12494 PHY_116
*12495 PHY_117
*12496 PHY_118
*12497 PHY_119
*12498 PHY_12
*12499 PHY_120
*12500 PHY_121
*12501 PHY_122
*12502 PHY_123
*12503 PHY_124
*12504 PHY_125
*12505 PHY_126
*12506 PHY_127
*12507 PHY_128
*12508 PHY_129
*12509 PHY_13
*12510 PHY_130
*12511 PHY_131
*12512 PHY_132
*12513 PHY_133
*12514 PHY_134
*12515 PHY_135
*12516 PHY_136
*12517 PHY_137
*12518 PHY_138
*12519 PHY_139
*12520 PHY_14
*12521 PHY_140
*12522 PHY_141
*12523 PHY_142
*12524 PHY_143
*12525 PHY_144
*12526 PHY_145
*12527 PHY_146
*12528 PHY_147
*12529 PHY_148
*12530 PHY_149
*12531 PHY_15
*12532 PHY_150
*12533 PHY_151
*12534 PHY_152
*12535 PHY_153
*12536 PHY_154
*12537 PHY_155
*12538 PHY_156
*12539 PHY_157
*12540 PHY_158
*12541 PHY_159
*12542 PHY_16
*12543 PHY_160
*12544 PHY_161
*12545 PHY_162
*12546 PHY_163
*12547 PHY_164
*12548 PHY_165
*12549 PHY_166
*12550 PHY_167
*12551 PHY_168
*12552 PHY_169
*12553 PHY_17
*12554 PHY_170
*12555 PHY_171
*12556 PHY_172
*12557 PHY_173
*12558 PHY_174
*12559 PHY_175
*12560 PHY_176
*12561 PHY_177
*12562 PHY_178
*12563 PHY_179
*12564 PHY_18
*12565 PHY_180
*12566 PHY_181
*12567 PHY_182
*12568 PHY_183
*12569 PHY_184
*12570 PHY_185
*12571 PHY_186
*12572 PHY_187
*12573 PHY_188
*12574 PHY_189
*12575 PHY_19
*12576 PHY_190
*12577 PHY_191
*12578 PHY_192
*12579 PHY_193
*12580 PHY_194
*12581 PHY_195
*12582 PHY_196
*12583 PHY_197
*12584 PHY_198
*12585 PHY_199
*12586 PHY_2
*12587 PHY_20
*12588 PHY_200
*12589 PHY_201
*12590 PHY_202
*12591 PHY_203
*12592 PHY_204
*12593 PHY_205
*12594 PHY_206
*12595 PHY_207
*12596 PHY_208
*12597 PHY_209
*12598 PHY_21
*12599 PHY_210
*12600 PHY_211
*12601 PHY_212
*12602 PHY_213
*12603 PHY_214
*12604 PHY_215
*12605 PHY_216
*12606 PHY_217
*12607 PHY_218
*12608 PHY_219
*12609 PHY_22
*12610 PHY_220
*12611 PHY_221
*12612 PHY_222
*12613 PHY_223
*12614 PHY_224
*12615 PHY_225
*12616 PHY_226
*12617 PHY_227
*12618 PHY_228
*12619 PHY_229
*12620 PHY_23
*12621 PHY_230
*12622 PHY_231
*12623 PHY_232
*12624 PHY_233
*12625 PHY_234
*12626 PHY_235
*12627 PHY_236
*12628 PHY_237
*12629 PHY_238
*12630 PHY_239
*12631 PHY_24
*12632 PHY_240
*12633 PHY_241
*12634 PHY_242
*12635 PHY_243
*12636 PHY_244
*12637 PHY_245
*12638 PHY_246
*12639 PHY_247
*12640 PHY_248
*12641 PHY_249
*12642 PHY_25
*12643 PHY_250
*12644 PHY_251
*12645 PHY_252
*12646 PHY_253
*12647 PHY_254
*12648 PHY_255
*12649 PHY_256
*12650 PHY_257
*12651 PHY_258
*12652 PHY_259
*12653 PHY_26
*12654 PHY_260
*12655 PHY_261
*12656 PHY_262
*12657 PHY_263
*12658 PHY_264
*12659 PHY_265
*12660 PHY_266
*12661 PHY_267
*12662 PHY_268
*12663 PHY_269
*12664 PHY_27
*12665 PHY_270
*12666 PHY_271
*12667 PHY_272
*12668 PHY_273
*12669 PHY_274
*12670 PHY_275
*12671 PHY_276
*12672 PHY_277
*12673 PHY_28
*12674 PHY_29
*12675 PHY_3
*12676 PHY_30
*12677 PHY_31
*12678 PHY_32
*12679 PHY_33
*12680 PHY_34
*12681 PHY_35
*12682 PHY_36
*12683 PHY_37
*12684 PHY_38
*12685 PHY_39
*12686 PHY_4
*12687 PHY_40
*12688 PHY_41
*12689 PHY_42
*12690 PHY_43
*12691 PHY_44
*12692 PHY_45
*12693 PHY_46
*12694 PHY_47
*12695 PHY_48
*12696 PHY_49
*12697 PHY_5
*12698 PHY_50
*12699 PHY_51
*12700 PHY_52
*12701 PHY_53
*12702 PHY_54
*12703 PHY_55
*12704 PHY_56
*12705 PHY_57
*12706 PHY_58
*12707 PHY_59
*12708 PHY_6
*12709 PHY_60
*12710 PHY_61
*12711 PHY_62
*12712 PHY_63
*12713 PHY_64
*12714 PHY_65
*12715 PHY_66
*12716 PHY_67
*12717 PHY_68
*12718 PHY_69
*12719 PHY_7
*12720 PHY_70
*12721 PHY_71
*12722 PHY_72
*12723 PHY_73
*12724 PHY_74
*12725 PHY_75
*12726 PHY_76
*12727 PHY_77
*12728 PHY_78
*12729 PHY_79
*12730 PHY_8
*12731 PHY_80
*12732 PHY_81
*12733 PHY_82
*12734 PHY_83
*12735 PHY_84
*12736 PHY_85
*12737 PHY_86
*12738 PHY_87
*12739 PHY_88
*12740 PHY_89
*12741 PHY_9
*12742 PHY_90
*12743 PHY_91
*12744 PHY_92
*12745 PHY_93
*12746 PHY_94
*12747 PHY_95
*12748 PHY_96
*12749 PHY_97
*12750 PHY_98
*12751 PHY_99
*12752 TAP_1000
*12753 TAP_1001
*12754 TAP_1002
*12755 TAP_1003
*12756 TAP_1004
*12757 TAP_1005
*12758 TAP_1006
*12759 TAP_1007
*12760 TAP_1008
*12761 TAP_1009
*12762 TAP_1010
*12763 TAP_1011
*12764 TAP_1012
*12765 TAP_1013
*12766 TAP_1014
*12767 TAP_1015
*12768 TAP_1016
*12769 TAP_1017
*12770 TAP_1018
*12771 TAP_1019
*12772 TAP_1020
*12773 TAP_1021
*12774 TAP_1022
*12775 TAP_1023
*12776 TAP_1024
*12777 TAP_1025
*12778 TAP_1026
*12779 TAP_1027
*12780 TAP_1028
*12781 TAP_1029
*12782 TAP_1030
*12783 TAP_1031
*12784 TAP_1032
*12785 TAP_1033
*12786 TAP_1034
*12787 TAP_1035
*12788 TAP_1036
*12789 TAP_1037
*12790 TAP_1038
*12791 TAP_1039
*12792 TAP_1040
*12793 TAP_1041
*12794 TAP_1042
*12795 TAP_1043
*12796 TAP_1044
*12797 TAP_1045
*12798 TAP_1046
*12799 TAP_1047
*12800 TAP_1048
*12801 TAP_1049
*12802 TAP_1050
*12803 TAP_1051
*12804 TAP_1052
*12805 TAP_1053
*12806 TAP_1054
*12807 TAP_1055
*12808 TAP_1056
*12809 TAP_1057
*12810 TAP_1058
*12811 TAP_1059
*12812 TAP_1060
*12813 TAP_1061
*12814 TAP_1062
*12815 TAP_1063
*12816 TAP_1064
*12817 TAP_1065
*12818 TAP_1066
*12819 TAP_1067
*12820 TAP_1068
*12821 TAP_1069
*12822 TAP_1070
*12823 TAP_1071
*12824 TAP_1072
*12825 TAP_1073
*12826 TAP_1074
*12827 TAP_1075
*12828 TAP_1076
*12829 TAP_1077
*12830 TAP_1078
*12831 TAP_1079
*12832 TAP_1080
*12833 TAP_1081
*12834 TAP_1082
*12835 TAP_1083
*12836 TAP_1084
*12837 TAP_1085
*12838 TAP_1086
*12839 TAP_1087
*12840 TAP_1088
*12841 TAP_1089
*12842 TAP_1090
*12843 TAP_1091
*12844 TAP_1092
*12845 TAP_1093
*12846 TAP_1094
*12847 TAP_1095
*12848 TAP_1096
*12849 TAP_1097
*12850 TAP_1098
*12851 TAP_1099
*12852 TAP_1100
*12853 TAP_1101
*12854 TAP_1102
*12855 TAP_1103
*12856 TAP_1104
*12857 TAP_1105
*12858 TAP_1106
*12859 TAP_1107
*12860 TAP_1108
*12861 TAP_1109
*12862 TAP_1110
*12863 TAP_1111
*12864 TAP_1112
*12865 TAP_1113
*12866 TAP_1114
*12867 TAP_1115
*12868 TAP_1116
*12869 TAP_1117
*12870 TAP_1118
*12871 TAP_1119
*12872 TAP_1120
*12873 TAP_1121
*12874 TAP_1122
*12875 TAP_1123
*12876 TAP_1124
*12877 TAP_1125
*12878 TAP_1126
*12879 TAP_1127
*12880 TAP_1128
*12881 TAP_1129
*12882 TAP_1130
*12883 TAP_1131
*12884 TAP_1132
*12885 TAP_1133
*12886 TAP_1134
*12887 TAP_1135
*12888 TAP_1136
*12889 TAP_1137
*12890 TAP_1138
*12891 TAP_1139
*12892 TAP_1140
*12893 TAP_1141
*12894 TAP_1142
*12895 TAP_1143
*12896 TAP_1144
*12897 TAP_1145
*12898 TAP_1146
*12899 TAP_1147
*12900 TAP_1148
*12901 TAP_1149
*12902 TAP_1150
*12903 TAP_1151
*12904 TAP_1152
*12905 TAP_1153
*12906 TAP_1154
*12907 TAP_1155
*12908 TAP_1156
*12909 TAP_1157
*12910 TAP_1158
*12911 TAP_1159
*12912 TAP_1160
*12913 TAP_1161
*12914 TAP_1162
*12915 TAP_1163
*12916 TAP_1164
*12917 TAP_1165
*12918 TAP_1166
*12919 TAP_1167
*12920 TAP_1168
*12921 TAP_1169
*12922 TAP_1170
*12923 TAP_1171
*12924 TAP_1172
*12925 TAP_1173
*12926 TAP_1174
*12927 TAP_1175
*12928 TAP_1176
*12929 TAP_1177
*12930 TAP_1178
*12931 TAP_1179
*12932 TAP_1180
*12933 TAP_1181
*12934 TAP_1182
*12935 TAP_1183
*12936 TAP_1184
*12937 TAP_1185
*12938 TAP_1186
*12939 TAP_1187
*12940 TAP_1188
*12941 TAP_1189
*12942 TAP_1190
*12943 TAP_1191
*12944 TAP_1192
*12945 TAP_1193
*12946 TAP_1194
*12947 TAP_1195
*12948 TAP_1196
*12949 TAP_1197
*12950 TAP_1198
*12951 TAP_1199
*12952 TAP_1200
*12953 TAP_1201
*12954 TAP_1202
*12955 TAP_1203
*12956 TAP_1204
*12957 TAP_1205
*12958 TAP_1206
*12959 TAP_1207
*12960 TAP_1208
*12961 TAP_1209
*12962 TAP_1210
*12963 TAP_1211
*12964 TAP_1212
*12965 TAP_1213
*12966 TAP_1214
*12967 TAP_1215
*12968 TAP_1216
*12969 TAP_1217
*12970 TAP_1218
*12971 TAP_1219
*12972 TAP_1220
*12973 TAP_1221
*12974 TAP_1222
*12975 TAP_1223
*12976 TAP_1224
*12977 TAP_1225
*12978 TAP_1226
*12979 TAP_1227
*12980 TAP_1228
*12981 TAP_1229
*12982 TAP_1230
*12983 TAP_1231
*12984 TAP_1232
*12985 TAP_1233
*12986 TAP_1234
*12987 TAP_1235
*12988 TAP_1236
*12989 TAP_1237
*12990 TAP_1238
*12991 TAP_1239
*12992 TAP_1240
*12993 TAP_1241
*12994 TAP_1242
*12995 TAP_1243
*12996 TAP_1244
*12997 TAP_1245
*12998 TAP_1246
*12999 TAP_1247
*13000 TAP_1248
*13001 TAP_1249
*13002 TAP_1250
*13003 TAP_1251
*13004 TAP_1252
*13005 TAP_1253
*13006 TAP_1254
*13007 TAP_1255
*13008 TAP_1256
*13009 TAP_1257
*13010 TAP_1258
*13011 TAP_1259
*13012 TAP_1260
*13013 TAP_1261
*13014 TAP_1262
*13015 TAP_1263
*13016 TAP_1264
*13017 TAP_1265
*13018 TAP_1266
*13019 TAP_1267
*13020 TAP_1268
*13021 TAP_1269
*13022 TAP_1270
*13023 TAP_1271
*13024 TAP_1272
*13025 TAP_1273
*13026 TAP_1274
*13027 TAP_1275
*13028 TAP_1276
*13029 TAP_1277
*13030 TAP_1278
*13031 TAP_1279
*13032 TAP_1280
*13033 TAP_1281
*13034 TAP_1282
*13035 TAP_1283
*13036 TAP_1284
*13037 TAP_1285
*13038 TAP_1286
*13039 TAP_1287
*13040 TAP_1288
*13041 TAP_1289
*13042 TAP_1290
*13043 TAP_1291
*13044 TAP_1292
*13045 TAP_1293
*13046 TAP_1294
*13047 TAP_1295
*13048 TAP_1296
*13049 TAP_1297
*13050 TAP_1298
*13051 TAP_1299
*13052 TAP_1300
*13053 TAP_1301
*13054 TAP_1302
*13055 TAP_1303
*13056 TAP_1304
*13057 TAP_1305
*13058 TAP_1306
*13059 TAP_1307
*13060 TAP_1308
*13061 TAP_1309
*13062 TAP_1310
*13063 TAP_1311
*13064 TAP_1312
*13065 TAP_1313
*13066 TAP_1314
*13067 TAP_1315
*13068 TAP_1316
*13069 TAP_1317
*13070 TAP_1318
*13071 TAP_1319
*13072 TAP_1320
*13073 TAP_1321
*13074 TAP_1322
*13075 TAP_1323
*13076 TAP_1324
*13077 TAP_1325
*13078 TAP_1326
*13079 TAP_1327
*13080 TAP_1328
*13081 TAP_1329
*13082 TAP_1330
*13083 TAP_1331
*13084 TAP_1332
*13085 TAP_1333
*13086 TAP_1334
*13087 TAP_1335
*13088 TAP_1336
*13089 TAP_1337
*13090 TAP_1338
*13091 TAP_1339
*13092 TAP_1340
*13093 TAP_1341
*13094 TAP_1342
*13095 TAP_1343
*13096 TAP_1344
*13097 TAP_1345
*13098 TAP_1346
*13099 TAP_1347
*13100 TAP_1348
*13101 TAP_1349
*13102 TAP_1350
*13103 TAP_1351
*13104 TAP_1352
*13105 TAP_1353
*13106 TAP_1354
*13107 TAP_1355
*13108 TAP_1356
*13109 TAP_1357
*13110 TAP_1358
*13111 TAP_1359
*13112 TAP_1360
*13113 TAP_1361
*13114 TAP_1362
*13115 TAP_1363
*13116 TAP_1364
*13117 TAP_1365
*13118 TAP_1366
*13119 TAP_1367
*13120 TAP_1368
*13121 TAP_1369
*13122 TAP_1370
*13123 TAP_1371
*13124 TAP_1372
*13125 TAP_1373
*13126 TAP_1374
*13127 TAP_1375
*13128 TAP_1376
*13129 TAP_1377
*13130 TAP_1378
*13131 TAP_1379
*13132 TAP_1380
*13133 TAP_1381
*13134 TAP_1382
*13135 TAP_1383
*13136 TAP_1384
*13137 TAP_1385
*13138 TAP_1386
*13139 TAP_1387
*13140 TAP_1388
*13141 TAP_1389
*13142 TAP_1390
*13143 TAP_1391
*13144 TAP_1392
*13145 TAP_1393
*13146 TAP_1394
*13147 TAP_1395
*13148 TAP_1396
*13149 TAP_1397
*13150 TAP_1398
*13151 TAP_1399
*13152 TAP_1400
*13153 TAP_1401
*13154 TAP_1402
*13155 TAP_1403
*13156 TAP_1404
*13157 TAP_1405
*13158 TAP_1406
*13159 TAP_1407
*13160 TAP_1408
*13161 TAP_1409
*13162 TAP_1410
*13163 TAP_1411
*13164 TAP_1412
*13165 TAP_1413
*13166 TAP_1414
*13167 TAP_1415
*13168 TAP_1416
*13169 TAP_1417
*13170 TAP_1418
*13171 TAP_1419
*13172 TAP_1420
*13173 TAP_1421
*13174 TAP_1422
*13175 TAP_1423
*13176 TAP_1424
*13177 TAP_1425
*13178 TAP_1426
*13179 TAP_1427
*13180 TAP_1428
*13181 TAP_1429
*13182 TAP_1430
*13183 TAP_1431
*13184 TAP_1432
*13185 TAP_1433
*13186 TAP_1434
*13187 TAP_1435
*13188 TAP_1436
*13189 TAP_1437
*13190 TAP_1438
*13191 TAP_1439
*13192 TAP_1440
*13193 TAP_1441
*13194 TAP_1442
*13195 TAP_1443
*13196 TAP_1444
*13197 TAP_1445
*13198 TAP_1446
*13199 TAP_1447
*13200 TAP_1448
*13201 TAP_1449
*13202 TAP_1450
*13203 TAP_1451
*13204 TAP_1452
*13205 TAP_1453
*13206 TAP_1454
*13207 TAP_1455
*13208 TAP_1456
*13209 TAP_1457
*13210 TAP_1458
*13211 TAP_1459
*13212 TAP_1460
*13213 TAP_1461
*13214 TAP_1462
*13215 TAP_1463
*13216 TAP_1464
*13217 TAP_1465
*13218 TAP_1466
*13219 TAP_1467
*13220 TAP_1468
*13221 TAP_1469
*13222 TAP_1470
*13223 TAP_1471
*13224 TAP_1472
*13225 TAP_1473
*13226 TAP_1474
*13227 TAP_1475
*13228 TAP_1476
*13229 TAP_1477
*13230 TAP_1478
*13231 TAP_1479
*13232 TAP_1480
*13233 TAP_1481
*13234 TAP_1482
*13235 TAP_1483
*13236 TAP_1484
*13237 TAP_1485
*13238 TAP_1486
*13239 TAP_1487
*13240 TAP_1488
*13241 TAP_1489
*13242 TAP_1490
*13243 TAP_1491
*13244 TAP_1492
*13245 TAP_1493
*13246 TAP_1494
*13247 TAP_1495
*13248 TAP_1496
*13249 TAP_1497
*13250 TAP_1498
*13251 TAP_1499
*13252 TAP_1500
*13253 TAP_1501
*13254 TAP_1502
*13255 TAP_1503
*13256 TAP_1504
*13257 TAP_1505
*13258 TAP_1506
*13259 TAP_1507
*13260 TAP_1508
*13261 TAP_1509
*13262 TAP_1510
*13263 TAP_1511
*13264 TAP_1512
*13265 TAP_1513
*13266 TAP_1514
*13267 TAP_1515
*13268 TAP_1516
*13269 TAP_1517
*13270 TAP_1518
*13271 TAP_1519
*13272 TAP_1520
*13273 TAP_1521
*13274 TAP_1522
*13275 TAP_1523
*13276 TAP_1524
*13277 TAP_1525
*13278 TAP_1526
*13279 TAP_1527
*13280 TAP_1528
*13281 TAP_1529
*13282 TAP_1530
*13283 TAP_1531
*13284 TAP_1532
*13285 TAP_1533
*13286 TAP_1534
*13287 TAP_1535
*13288 TAP_1536
*13289 TAP_1537
*13290 TAP_1538
*13291 TAP_1539
*13292 TAP_1540
*13293 TAP_1541
*13294 TAP_1542
*13295 TAP_1543
*13296 TAP_1544
*13297 TAP_1545
*13298 TAP_1546
*13299 TAP_1547
*13300 TAP_1548
*13301 TAP_1549
*13302 TAP_1550
*13303 TAP_1551
*13304 TAP_1552
*13305 TAP_1553
*13306 TAP_1554
*13307 TAP_1555
*13308 TAP_1556
*13309 TAP_1557
*13310 TAP_1558
*13311 TAP_1559
*13312 TAP_1560
*13313 TAP_1561
*13314 TAP_1562
*13315 TAP_1563
*13316 TAP_1564
*13317 TAP_1565
*13318 TAP_1566
*13319 TAP_1567
*13320 TAP_1568
*13321 TAP_1569
*13322 TAP_1570
*13323 TAP_1571
*13324 TAP_1572
*13325 TAP_1573
*13326 TAP_1574
*13327 TAP_1575
*13328 TAP_1576
*13329 TAP_1577
*13330 TAP_1578
*13331 TAP_1579
*13332 TAP_1580
*13333 TAP_1581
*13334 TAP_1582
*13335 TAP_1583
*13336 TAP_1584
*13337 TAP_1585
*13338 TAP_1586
*13339 TAP_1587
*13340 TAP_1588
*13341 TAP_1589
*13342 TAP_1590
*13343 TAP_1591
*13344 TAP_1592
*13345 TAP_1593
*13346 TAP_1594
*13347 TAP_1595
*13348 TAP_1596
*13349 TAP_1597
*13350 TAP_1598
*13351 TAP_1599
*13352 TAP_1600
*13353 TAP_1601
*13354 TAP_1602
*13355 TAP_1603
*13356 TAP_1604
*13357 TAP_1605
*13358 TAP_1606
*13359 TAP_1607
*13360 TAP_1608
*13361 TAP_1609
*13362 TAP_1610
*13363 TAP_1611
*13364 TAP_1612
*13365 TAP_1613
*13366 TAP_1614
*13367 TAP_1615
*13368 TAP_1616
*13369 TAP_1617
*13370 TAP_1618
*13371 TAP_1619
*13372 TAP_1620
*13373 TAP_1621
*13374 TAP_1622
*13375 TAP_1623
*13376 TAP_1624
*13377 TAP_1625
*13378 TAP_1626
*13379 TAP_1627
*13380 TAP_1628
*13381 TAP_1629
*13382 TAP_1630
*13383 TAP_1631
*13384 TAP_1632
*13385 TAP_1633
*13386 TAP_1634
*13387 TAP_1635
*13388 TAP_1636
*13389 TAP_1637
*13390 TAP_1638
*13391 TAP_1639
*13392 TAP_1640
*13393 TAP_1641
*13394 TAP_1642
*13395 TAP_1643
*13396 TAP_1644
*13397 TAP_1645
*13398 TAP_1646
*13399 TAP_1647
*13400 TAP_1648
*13401 TAP_1649
*13402 TAP_1650
*13403 TAP_1651
*13404 TAP_1652
*13405 TAP_1653
*13406 TAP_1654
*13407 TAP_1655
*13408 TAP_1656
*13409 TAP_1657
*13410 TAP_1658
*13411 TAP_1659
*13412 TAP_1660
*13413 TAP_1661
*13414 TAP_1662
*13415 TAP_1663
*13416 TAP_1664
*13417 TAP_1665
*13418 TAP_1666
*13419 TAP_1667
*13420 TAP_1668
*13421 TAP_1669
*13422 TAP_1670
*13423 TAP_1671
*13424 TAP_1672
*13425 TAP_1673
*13426 TAP_1674
*13427 TAP_1675
*13428 TAP_1676
*13429 TAP_1677
*13430 TAP_1678
*13431 TAP_1679
*13432 TAP_1680
*13433 TAP_1681
*13434 TAP_1682
*13435 TAP_1683
*13436 TAP_1684
*13437 TAP_1685
*13438 TAP_1686
*13439 TAP_1687
*13440 TAP_1688
*13441 TAP_1689
*13442 TAP_1690
*13443 TAP_1691
*13444 TAP_1692
*13445 TAP_1693
*13446 TAP_1694
*13447 TAP_1695
*13448 TAP_1696
*13449 TAP_1697
*13450 TAP_1698
*13451 TAP_1699
*13452 TAP_1700
*13453 TAP_1701
*13454 TAP_1702
*13455 TAP_1703
*13456 TAP_1704
*13457 TAP_1705
*13458 TAP_1706
*13459 TAP_1707
*13460 TAP_1708
*13461 TAP_1709
*13462 TAP_1710
*13463 TAP_1711
*13464 TAP_1712
*13465 TAP_1713
*13466 TAP_1714
*13467 TAP_1715
*13468 TAP_1716
*13469 TAP_1717
*13470 TAP_1718
*13471 TAP_1719
*13472 TAP_1720
*13473 TAP_1721
*13474 TAP_1722
*13475 TAP_1723
*13476 TAP_1724
*13477 TAP_1725
*13478 TAP_1726
*13479 TAP_1727
*13480 TAP_1728
*13481 TAP_1729
*13482 TAP_1730
*13483 TAP_1731
*13484 TAP_1732
*13485 TAP_1733
*13486 TAP_1734
*13487 TAP_1735
*13488 TAP_1736
*13489 TAP_1737
*13490 TAP_1738
*13491 TAP_1739
*13492 TAP_1740
*13493 TAP_1741
*13494 TAP_1742
*13495 TAP_1743
*13496 TAP_1744
*13497 TAP_1745
*13498 TAP_1746
*13499 TAP_1747
*13500 TAP_1748
*13501 TAP_1749
*13502 TAP_1750
*13503 TAP_1751
*13504 TAP_1752
*13505 TAP_1753
*13506 TAP_1754
*13507 TAP_1755
*13508 TAP_1756
*13509 TAP_1757
*13510 TAP_1758
*13511 TAP_1759
*13512 TAP_1760
*13513 TAP_1761
*13514 TAP_1762
*13515 TAP_1763
*13516 TAP_1764
*13517 TAP_1765
*13518 TAP_1766
*13519 TAP_1767
*13520 TAP_1768
*13521 TAP_1769
*13522 TAP_1770
*13523 TAP_1771
*13524 TAP_1772
*13525 TAP_1773
*13526 TAP_1774
*13527 TAP_1775
*13528 TAP_1776
*13529 TAP_1777
*13530 TAP_1778
*13531 TAP_1779
*13532 TAP_1780
*13533 TAP_1781
*13534 TAP_1782
*13535 TAP_1783
*13536 TAP_1784
*13537 TAP_1785
*13538 TAP_1786
*13539 TAP_1787
*13540 TAP_1788
*13541 TAP_1789
*13542 TAP_1790
*13543 TAP_1791
*13544 TAP_1792
*13545 TAP_1793
*13546 TAP_1794
*13547 TAP_1795
*13548 TAP_1796
*13549 TAP_1797
*13550 TAP_1798
*13551 TAP_1799
*13552 TAP_1800
*13553 TAP_1801
*13554 TAP_1802
*13555 TAP_1803
*13556 TAP_1804
*13557 TAP_1805
*13558 TAP_1806
*13559 TAP_1807
*13560 TAP_1808
*13561 TAP_1809
*13562 TAP_1810
*13563 TAP_1811
*13564 TAP_1812
*13565 TAP_1813
*13566 TAP_1814
*13567 TAP_1815
*13568 TAP_1816
*13569 TAP_1817
*13570 TAP_1818
*13571 TAP_1819
*13572 TAP_1820
*13573 TAP_1821
*13574 TAP_1822
*13575 TAP_1823
*13576 TAP_1824
*13577 TAP_1825
*13578 TAP_1826
*13579 TAP_1827
*13580 TAP_1828
*13581 TAP_1829
*13582 TAP_1830
*13583 TAP_1831
*13584 TAP_1832
*13585 TAP_1833
*13586 TAP_1834
*13587 TAP_1835
*13588 TAP_1836
*13589 TAP_1837
*13590 TAP_1838
*13591 TAP_1839
*13592 TAP_1840
*13593 TAP_1841
*13594 TAP_1842
*13595 TAP_1843
*13596 TAP_1844
*13597 TAP_1845
*13598 TAP_1846
*13599 TAP_1847
*13600 TAP_1848
*13601 TAP_1849
*13602 TAP_1850
*13603 TAP_1851
*13604 TAP_1852
*13605 TAP_1853
*13606 TAP_1854
*13607 TAP_1855
*13608 TAP_1856
*13609 TAP_1857
*13610 TAP_1858
*13611 TAP_1859
*13612 TAP_1860
*13613 TAP_1861
*13614 TAP_1862
*13615 TAP_1863
*13616 TAP_1864
*13617 TAP_1865
*13618 TAP_1866
*13619 TAP_1867
*13620 TAP_1868
*13621 TAP_1869
*13622 TAP_1870
*13623 TAP_1871
*13624 TAP_1872
*13625 TAP_1873
*13626 TAP_1874
*13627 TAP_1875
*13628 TAP_1876
*13629 TAP_1877
*13630 TAP_1878
*13631 TAP_1879
*13632 TAP_1880
*13633 TAP_1881
*13634 TAP_1882
*13635 TAP_1883
*13636 TAP_1884
*13637 TAP_1885
*13638 TAP_1886
*13639 TAP_1887
*13640 TAP_1888
*13641 TAP_1889
*13642 TAP_1890
*13643 TAP_1891
*13644 TAP_1892
*13645 TAP_1893
*13646 TAP_1894
*13647 TAP_1895
*13648 TAP_1896
*13649 TAP_1897
*13650 TAP_1898
*13651 TAP_1899
*13652 TAP_1900
*13653 TAP_1901
*13654 TAP_1902
*13655 TAP_1903
*13656 TAP_1904
*13657 TAP_1905
*13658 TAP_1906
*13659 TAP_1907
*13660 TAP_1908
*13661 TAP_1909
*13662 TAP_1910
*13663 TAP_1911
*13664 TAP_1912
*13665 TAP_1913
*13666 TAP_1914
*13667 TAP_1915
*13668 TAP_1916
*13669 TAP_1917
*13670 TAP_1918
*13671 TAP_1919
*13672 TAP_1920
*13673 TAP_1921
*13674 TAP_1922
*13675 TAP_1923
*13676 TAP_1924
*13677 TAP_1925
*13678 TAP_1926
*13679 TAP_1927
*13680 TAP_1928
*13681 TAP_1929
*13682 TAP_1930
*13683 TAP_1931
*13684 TAP_1932
*13685 TAP_1933
*13686 TAP_1934
*13687 TAP_1935
*13688 TAP_1936
*13689 TAP_1937
*13690 TAP_1938
*13691 TAP_1939
*13692 TAP_1940
*13693 TAP_1941
*13694 TAP_1942
*13695 TAP_1943
*13696 TAP_1944
*13697 TAP_1945
*13698 TAP_1946
*13699 TAP_1947
*13700 TAP_1948
*13701 TAP_1949
*13702 TAP_1950
*13703 TAP_1951
*13704 TAP_1952
*13705 TAP_1953
*13706 TAP_1954
*13707 TAP_1955
*13708 TAP_1956
*13709 TAP_1957
*13710 TAP_1958
*13711 TAP_1959
*13712 TAP_1960
*13713 TAP_1961
*13714 TAP_1962
*13715 TAP_1963
*13716 TAP_1964
*13717 TAP_1965
*13718 TAP_1966
*13719 TAP_1967
*13720 TAP_1968
*13721 TAP_1969
*13722 TAP_1970
*13723 TAP_1971
*13724 TAP_1972
*13725 TAP_1973
*13726 TAP_1974
*13727 TAP_1975
*13728 TAP_1976
*13729 TAP_1977
*13730 TAP_1978
*13731 TAP_1979
*13732 TAP_1980
*13733 TAP_1981
*13734 TAP_1982
*13735 TAP_1983
*13736 TAP_1984
*13737 TAP_1985
*13738 TAP_1986
*13739 TAP_1987
*13740 TAP_1988
*13741 TAP_1989
*13742 TAP_1990
*13743 TAP_1991
*13744 TAP_1992
*13745 TAP_1993
*13746 TAP_1994
*13747 TAP_1995
*13748 TAP_1996
*13749 TAP_1997
*13750 TAP_1998
*13751 TAP_1999
*13752 TAP_2000
*13753 TAP_2001
*13754 TAP_2002
*13755 TAP_2003
*13756 TAP_2004
*13757 TAP_2005
*13758 TAP_2006
*13759 TAP_2007
*13760 TAP_2008
*13761 TAP_2009
*13762 TAP_2010
*13763 TAP_2011
*13764 TAP_2012
*13765 TAP_2013
*13766 TAP_2014
*13767 TAP_2015
*13768 TAP_2016
*13769 TAP_2017
*13770 TAP_2018
*13771 TAP_2019
*13772 TAP_2020
*13773 TAP_2021
*13774 TAP_2022
*13775 TAP_2023
*13776 TAP_2024
*13777 TAP_2025
*13778 TAP_2026
*13779 TAP_2027
*13780 TAP_2028
*13781 TAP_2029
*13782 TAP_2030
*13783 TAP_2031
*13784 TAP_2032
*13785 TAP_2033
*13786 TAP_2034
*13787 TAP_2035
*13788 TAP_2036
*13789 TAP_2037
*13790 TAP_2038
*13791 TAP_2039
*13792 TAP_2040
*13793 TAP_2041
*13794 TAP_2042
*13795 TAP_2043
*13796 TAP_2044
*13797 TAP_2045
*13798 TAP_2046
*13799 TAP_2047
*13800 TAP_2048
*13801 TAP_2049
*13802 TAP_2050
*13803 TAP_2051
*13804 TAP_2052
*13805 TAP_2053
*13806 TAP_2054
*13807 TAP_2055
*13808 TAP_2056
*13809 TAP_2057
*13810 TAP_2058
*13811 TAP_2059
*13812 TAP_2060
*13813 TAP_2061
*13814 TAP_2062
*13815 TAP_2063
*13816 TAP_2064
*13817 TAP_2065
*13818 TAP_2066
*13819 TAP_2067
*13820 TAP_2068
*13821 TAP_2069
*13822 TAP_2070
*13823 TAP_2071
*13824 TAP_2072
*13825 TAP_2073
*13826 TAP_2074
*13827 TAP_2075
*13828 TAP_2076
*13829 TAP_2077
*13830 TAP_2078
*13831 TAP_2079
*13832 TAP_2080
*13833 TAP_2081
*13834 TAP_2082
*13835 TAP_2083
*13836 TAP_2084
*13837 TAP_2085
*13838 TAP_2086
*13839 TAP_2087
*13840 TAP_2088
*13841 TAP_2089
*13842 TAP_2090
*13843 TAP_2091
*13844 TAP_2092
*13845 TAP_2093
*13846 TAP_2094
*13847 TAP_2095
*13848 TAP_2096
*13849 TAP_2097
*13850 TAP_2098
*13851 TAP_2099
*13852 TAP_2100
*13853 TAP_2101
*13854 TAP_2102
*13855 TAP_2103
*13856 TAP_2104
*13857 TAP_2105
*13858 TAP_2106
*13859 TAP_2107
*13860 TAP_2108
*13861 TAP_2109
*13862 TAP_2110
*13863 TAP_2111
*13864 TAP_2112
*13865 TAP_2113
*13866 TAP_2114
*13867 TAP_2115
*13868 TAP_2116
*13869 TAP_2117
*13870 TAP_2118
*13871 TAP_2119
*13872 TAP_2120
*13873 TAP_2121
*13874 TAP_2122
*13875 TAP_2123
*13876 TAP_2124
*13877 TAP_2125
*13878 TAP_2126
*13879 TAP_2127
*13880 TAP_2128
*13881 TAP_2129
*13882 TAP_2130
*13883 TAP_2131
*13884 TAP_2132
*13885 TAP_2133
*13886 TAP_2134
*13887 TAP_2135
*13888 TAP_2136
*13889 TAP_2137
*13890 TAP_2138
*13891 TAP_2139
*13892 TAP_2140
*13893 TAP_2141
*13894 TAP_2142
*13895 TAP_2143
*13896 TAP_2144
*13897 TAP_2145
*13898 TAP_2146
*13899 TAP_2147
*13900 TAP_2148
*13901 TAP_2149
*13902 TAP_2150
*13903 TAP_2151
*13904 TAP_2152
*13905 TAP_2153
*13906 TAP_2154
*13907 TAP_2155
*13908 TAP_2156
*13909 TAP_2157
*13910 TAP_2158
*13911 TAP_2159
*13912 TAP_2160
*13913 TAP_2161
*13914 TAP_2162
*13915 TAP_2163
*13916 TAP_2164
*13917 TAP_2165
*13918 TAP_2166
*13919 TAP_2167
*13920 TAP_2168
*13921 TAP_2169
*13922 TAP_2170
*13923 TAP_2171
*13924 TAP_2172
*13925 TAP_2173
*13926 TAP_2174
*13927 TAP_2175
*13928 TAP_2176
*13929 TAP_2177
*13930 TAP_2178
*13931 TAP_2179
*13932 TAP_2180
*13933 TAP_2181
*13934 TAP_2182
*13935 TAP_2183
*13936 TAP_2184
*13937 TAP_2185
*13938 TAP_2186
*13939 TAP_2187
*13940 TAP_2188
*13941 TAP_2189
*13942 TAP_2190
*13943 TAP_2191
*13944 TAP_2192
*13945 TAP_2193
*13946 TAP_2194
*13947 TAP_2195
*13948 TAP_2196
*13949 TAP_2197
*13950 TAP_2198
*13951 TAP_2199
*13952 TAP_2200
*13953 TAP_2201
*13954 TAP_2202
*13955 TAP_2203
*13956 TAP_2204
*13957 TAP_2205
*13958 TAP_2206
*13959 TAP_2207
*13960 TAP_2208
*13961 TAP_2209
*13962 TAP_2210
*13963 TAP_2211
*13964 TAP_2212
*13965 TAP_2213
*13966 TAP_2214
*13967 TAP_2215
*13968 TAP_2216
*13969 TAP_2217
*13970 TAP_2218
*13971 TAP_2219
*13972 TAP_2220
*13973 TAP_2221
*13974 TAP_2222
*13975 TAP_2223
*13976 TAP_2224
*13977 TAP_2225
*13978 TAP_2226
*13979 TAP_2227
*13980 TAP_2228
*13981 TAP_2229
*13982 TAP_2230
*13983 TAP_2231
*13984 TAP_2232
*13985 TAP_2233
*13986 TAP_2234
*13987 TAP_2235
*13988 TAP_2236
*13989 TAP_2237
*13990 TAP_2238
*13991 TAP_2239
*13992 TAP_2240
*13993 TAP_2241
*13994 TAP_2242
*13995 TAP_2243
*13996 TAP_2244
*13997 TAP_2245
*13998 TAP_2246
*13999 TAP_2247
*14000 TAP_2248
*14001 TAP_2249
*14002 TAP_2250
*14003 TAP_2251
*14004 TAP_2252
*14005 TAP_2253
*14006 TAP_2254
*14007 TAP_2255
*14008 TAP_2256
*14009 TAP_2257
*14010 TAP_2258
*14011 TAP_2259
*14012 TAP_2260
*14013 TAP_2261
*14014 TAP_2262
*14015 TAP_2263
*14016 TAP_2264
*14017 TAP_2265
*14018 TAP_2266
*14019 TAP_2267
*14020 TAP_2268
*14021 TAP_2269
*14022 TAP_2270
*14023 TAP_2271
*14024 TAP_2272
*14025 TAP_2273
*14026 TAP_2274
*14027 TAP_2275
*14028 TAP_2276
*14029 TAP_2277
*14030 TAP_2278
*14031 TAP_2279
*14032 TAP_2280
*14033 TAP_2281
*14034 TAP_2282
*14035 TAP_2283
*14036 TAP_2284
*14037 TAP_2285
*14038 TAP_2286
*14039 TAP_2287
*14040 TAP_2288
*14041 TAP_2289
*14042 TAP_2290
*14043 TAP_2291
*14044 TAP_2292
*14045 TAP_2293
*14046 TAP_2294
*14047 TAP_2295
*14048 TAP_2296
*14049 TAP_2297
*14050 TAP_2298
*14051 TAP_2299
*14052 TAP_2300
*14053 TAP_2301
*14054 TAP_2302
*14055 TAP_2303
*14056 TAP_2304
*14057 TAP_2305
*14058 TAP_2306
*14059 TAP_2307
*14060 TAP_2308
*14061 TAP_2309
*14062 TAP_2310
*14063 TAP_2311
*14064 TAP_2312
*14065 TAP_2313
*14066 TAP_2314
*14067 TAP_2315
*14068 TAP_2316
*14069 TAP_2317
*14070 TAP_2318
*14071 TAP_2319
*14072 TAP_2320
*14073 TAP_2321
*14074 TAP_278
*14075 TAP_279
*14076 TAP_280
*14077 TAP_281
*14078 TAP_282
*14079 TAP_283
*14080 TAP_284
*14081 TAP_285
*14082 TAP_286
*14083 TAP_287
*14084 TAP_288
*14085 TAP_289
*14086 TAP_290
*14087 TAP_291
*14088 TAP_292
*14089 TAP_293
*14090 TAP_294
*14091 TAP_295
*14092 TAP_296
*14093 TAP_297
*14094 TAP_298
*14095 TAP_299
*14096 TAP_300
*14097 TAP_301
*14098 TAP_302
*14099 TAP_303
*14100 TAP_304
*14101 TAP_305
*14102 TAP_306
*14103 TAP_307
*14104 TAP_308
*14105 TAP_309
*14106 TAP_310
*14107 TAP_311
*14108 TAP_312
*14109 TAP_313
*14110 TAP_314
*14111 TAP_315
*14112 TAP_316
*14113 TAP_317
*14114 TAP_318
*14115 TAP_319
*14116 TAP_320
*14117 TAP_321
*14118 TAP_322
*14119 TAP_323
*14120 TAP_324
*14121 TAP_325
*14122 TAP_326
*14123 TAP_327
*14124 TAP_328
*14125 TAP_329
*14126 TAP_330
*14127 TAP_331
*14128 TAP_332
*14129 TAP_333
*14130 TAP_334
*14131 TAP_335
*14132 TAP_336
*14133 TAP_337
*14134 TAP_338
*14135 TAP_339
*14136 TAP_340
*14137 TAP_341
*14138 TAP_342
*14139 TAP_343
*14140 TAP_344
*14141 TAP_345
*14142 TAP_346
*14143 TAP_347
*14144 TAP_348
*14145 TAP_349
*14146 TAP_350
*14147 TAP_351
*14148 TAP_352
*14149 TAP_353
*14150 TAP_354
*14151 TAP_355
*14152 TAP_356
*14153 TAP_357
*14154 TAP_358
*14155 TAP_359
*14156 TAP_360
*14157 TAP_361
*14158 TAP_362
*14159 TAP_363
*14160 TAP_364
*14161 TAP_365
*14162 TAP_366
*14163 TAP_367
*14164 TAP_368
*14165 TAP_369
*14166 TAP_370
*14167 TAP_371
*14168 TAP_372
*14169 TAP_373
*14170 TAP_374
*14171 TAP_375
*14172 TAP_376
*14173 TAP_377
*14174 TAP_378
*14175 TAP_379
*14176 TAP_380
*14177 TAP_381
*14178 TAP_382
*14179 TAP_383
*14180 TAP_384
*14181 TAP_385
*14182 TAP_386
*14183 TAP_387
*14184 TAP_388
*14185 TAP_389
*14186 TAP_390
*14187 TAP_391
*14188 TAP_392
*14189 TAP_393
*14190 TAP_394
*14191 TAP_395
*14192 TAP_396
*14193 TAP_397
*14194 TAP_398
*14195 TAP_399
*14196 TAP_400
*14197 TAP_401
*14198 TAP_402
*14199 TAP_403
*14200 TAP_404
*14201 TAP_405
*14202 TAP_406
*14203 TAP_407
*14204 TAP_408
*14205 TAP_409
*14206 TAP_410
*14207 TAP_411
*14208 TAP_412
*14209 TAP_413
*14210 TAP_414
*14211 TAP_415
*14212 TAP_416
*14213 TAP_417
*14214 TAP_418
*14215 TAP_419
*14216 TAP_420
*14217 TAP_421
*14218 TAP_422
*14219 TAP_423
*14220 TAP_424
*14221 TAP_425
*14222 TAP_426
*14223 TAP_427
*14224 TAP_428
*14225 TAP_429
*14226 TAP_430
*14227 TAP_431
*14228 TAP_432
*14229 TAP_433
*14230 TAP_434
*14231 TAP_435
*14232 TAP_436
*14233 TAP_437
*14234 TAP_438
*14235 TAP_439
*14236 TAP_440
*14237 TAP_441
*14238 TAP_442
*14239 TAP_443
*14240 TAP_444
*14241 TAP_445
*14242 TAP_446
*14243 TAP_447
*14244 TAP_448
*14245 TAP_449
*14246 TAP_450
*14247 TAP_451
*14248 TAP_452
*14249 TAP_453
*14250 TAP_454
*14251 TAP_455
*14252 TAP_456
*14253 TAP_457
*14254 TAP_458
*14255 TAP_459
*14256 TAP_460
*14257 TAP_461
*14258 TAP_462
*14259 TAP_463
*14260 TAP_464
*14261 TAP_465
*14262 TAP_466
*14263 TAP_467
*14264 TAP_468
*14265 TAP_469
*14266 TAP_470
*14267 TAP_471
*14268 TAP_472
*14269 TAP_473
*14270 TAP_474
*14271 TAP_475
*14272 TAP_476
*14273 TAP_477
*14274 TAP_478
*14275 TAP_479
*14276 TAP_480
*14277 TAP_481
*14278 TAP_482
*14279 TAP_483
*14280 TAP_484
*14281 TAP_485
*14282 TAP_486
*14283 TAP_487
*14284 TAP_488
*14285 TAP_489
*14286 TAP_490
*14287 TAP_491
*14288 TAP_492
*14289 TAP_493
*14290 TAP_494
*14291 TAP_495
*14292 TAP_496
*14293 TAP_497
*14294 TAP_498
*14295 TAP_499
*14296 TAP_500
*14297 TAP_501
*14298 TAP_502
*14299 TAP_503
*14300 TAP_504
*14301 TAP_505
*14302 TAP_506
*14303 TAP_507
*14304 TAP_508
*14305 TAP_509
*14306 TAP_510
*14307 TAP_511
*14308 TAP_512
*14309 TAP_513
*14310 TAP_514
*14311 TAP_515
*14312 TAP_516
*14313 TAP_517
*14314 TAP_518
*14315 TAP_519
*14316 TAP_520
*14317 TAP_521
*14318 TAP_522
*14319 TAP_523
*14320 TAP_524
*14321 TAP_525
*14322 TAP_526
*14323 TAP_527
*14324 TAP_528
*14325 TAP_529
*14326 TAP_530
*14327 TAP_531
*14328 TAP_532
*14329 TAP_533
*14330 TAP_534
*14331 TAP_535
*14332 TAP_536
*14333 TAP_537
*14334 TAP_538
*14335 TAP_539
*14336 TAP_540
*14337 TAP_541
*14338 TAP_542
*14339 TAP_543
*14340 TAP_544
*14341 TAP_545
*14342 TAP_546
*14343 TAP_547
*14344 TAP_548
*14345 TAP_549
*14346 TAP_550
*14347 TAP_551
*14348 TAP_552
*14349 TAP_553
*14350 TAP_554
*14351 TAP_555
*14352 TAP_556
*14353 TAP_557
*14354 TAP_558
*14355 TAP_559
*14356 TAP_560
*14357 TAP_561
*14358 TAP_562
*14359 TAP_563
*14360 TAP_564
*14361 TAP_565
*14362 TAP_566
*14363 TAP_567
*14364 TAP_568
*14365 TAP_569
*14366 TAP_570
*14367 TAP_571
*14368 TAP_572
*14369 TAP_573
*14370 TAP_574
*14371 TAP_575
*14372 TAP_576
*14373 TAP_577
*14374 TAP_578
*14375 TAP_579
*14376 TAP_580
*14377 TAP_581
*14378 TAP_582
*14379 TAP_583
*14380 TAP_584
*14381 TAP_585
*14382 TAP_586
*14383 TAP_587
*14384 TAP_588
*14385 TAP_589
*14386 TAP_590
*14387 TAP_591
*14388 TAP_592
*14389 TAP_593
*14390 TAP_594
*14391 TAP_595
*14392 TAP_596
*14393 TAP_597
*14394 TAP_598
*14395 TAP_599
*14396 TAP_600
*14397 TAP_601
*14398 TAP_602
*14399 TAP_603
*14400 TAP_604
*14401 TAP_605
*14402 TAP_606
*14403 TAP_607
*14404 TAP_608
*14405 TAP_609
*14406 TAP_610
*14407 TAP_611
*14408 TAP_612
*14409 TAP_613
*14410 TAP_614
*14411 TAP_615
*14412 TAP_616
*14413 TAP_617
*14414 TAP_618
*14415 TAP_619
*14416 TAP_620
*14417 TAP_621
*14418 TAP_622
*14419 TAP_623
*14420 TAP_624
*14421 TAP_625
*14422 TAP_626
*14423 TAP_627
*14424 TAP_628
*14425 TAP_629
*14426 TAP_630
*14427 TAP_631
*14428 TAP_632
*14429 TAP_633
*14430 TAP_634
*14431 TAP_635
*14432 TAP_636
*14433 TAP_637
*14434 TAP_638
*14435 TAP_639
*14436 TAP_640
*14437 TAP_641
*14438 TAP_642
*14439 TAP_643
*14440 TAP_644
*14441 TAP_645
*14442 TAP_646
*14443 TAP_647
*14444 TAP_648
*14445 TAP_649
*14446 TAP_650
*14447 TAP_651
*14448 TAP_652
*14449 TAP_653
*14450 TAP_654
*14451 TAP_655
*14452 TAP_656
*14453 TAP_657
*14454 TAP_658
*14455 TAP_659
*14456 TAP_660
*14457 TAP_661
*14458 TAP_662
*14459 TAP_663
*14460 TAP_664
*14461 TAP_665
*14462 TAP_666
*14463 TAP_667
*14464 TAP_668
*14465 TAP_669
*14466 TAP_670
*14467 TAP_671
*14468 TAP_672
*14469 TAP_673
*14470 TAP_674
*14471 TAP_675
*14472 TAP_676
*14473 TAP_677
*14474 TAP_678
*14475 TAP_679
*14476 TAP_680
*14477 TAP_681
*14478 TAP_682
*14479 TAP_683
*14480 TAP_684
*14481 TAP_685
*14482 TAP_686
*14483 TAP_687
*14484 TAP_688
*14485 TAP_689
*14486 TAP_690
*14487 TAP_691
*14488 TAP_692
*14489 TAP_693
*14490 TAP_694
*14491 TAP_695
*14492 TAP_696
*14493 TAP_697
*14494 TAP_698
*14495 TAP_699
*14496 TAP_700
*14497 TAP_701
*14498 TAP_702
*14499 TAP_703
*14500 TAP_704
*14501 TAP_705
*14502 TAP_706
*14503 TAP_707
*14504 TAP_708
*14505 TAP_709
*14506 TAP_710
*14507 TAP_711
*14508 TAP_712
*14509 TAP_713
*14510 TAP_714
*14511 TAP_715
*14512 TAP_716
*14513 TAP_717
*14514 TAP_718
*14515 TAP_719
*14516 TAP_720
*14517 TAP_721
*14518 TAP_722
*14519 TAP_723
*14520 TAP_724
*14521 TAP_725
*14522 TAP_726
*14523 TAP_727
*14524 TAP_728
*14525 TAP_729
*14526 TAP_730
*14527 TAP_731
*14528 TAP_732
*14529 TAP_733
*14530 TAP_734
*14531 TAP_735
*14532 TAP_736
*14533 TAP_737
*14534 TAP_738
*14535 TAP_739
*14536 TAP_740
*14537 TAP_741
*14538 TAP_742
*14539 TAP_743
*14540 TAP_744
*14541 TAP_745
*14542 TAP_746
*14543 TAP_747
*14544 TAP_748
*14545 TAP_749
*14546 TAP_750
*14547 TAP_751
*14548 TAP_752
*14549 TAP_753
*14550 TAP_754
*14551 TAP_755
*14552 TAP_756
*14553 TAP_757
*14554 TAP_758
*14555 TAP_759
*14556 TAP_760
*14557 TAP_761
*14558 TAP_762
*14559 TAP_763
*14560 TAP_764
*14561 TAP_765
*14562 TAP_766
*14563 TAP_767
*14564 TAP_768
*14565 TAP_769
*14566 TAP_770
*14567 TAP_771
*14568 TAP_772
*14569 TAP_773
*14570 TAP_774
*14571 TAP_775
*14572 TAP_776
*14573 TAP_777
*14574 TAP_778
*14575 TAP_779
*14576 TAP_780
*14577 TAP_781
*14578 TAP_782
*14579 TAP_783
*14580 TAP_784
*14581 TAP_785
*14582 TAP_786
*14583 TAP_787
*14584 TAP_788
*14585 TAP_789
*14586 TAP_790
*14587 TAP_791
*14588 TAP_792
*14589 TAP_793
*14590 TAP_794
*14591 TAP_795
*14592 TAP_796
*14593 TAP_797
*14594 TAP_798
*14595 TAP_799
*14596 TAP_800
*14597 TAP_801
*14598 TAP_802
*14599 TAP_803
*14600 TAP_804
*14601 TAP_805
*14602 TAP_806
*14603 TAP_807
*14604 TAP_808
*14605 TAP_809
*14606 TAP_810
*14607 TAP_811
*14608 TAP_812
*14609 TAP_813
*14610 TAP_814
*14611 TAP_815
*14612 TAP_816
*14613 TAP_817
*14614 TAP_818
*14615 TAP_819
*14616 TAP_820
*14617 TAP_821
*14618 TAP_822
*14619 TAP_823
*14620 TAP_824
*14621 TAP_825
*14622 TAP_826
*14623 TAP_827
*14624 TAP_828
*14625 TAP_829
*14626 TAP_830
*14627 TAP_831
*14628 TAP_832
*14629 TAP_833
*14630 TAP_834
*14631 TAP_835
*14632 TAP_836
*14633 TAP_837
*14634 TAP_838
*14635 TAP_839
*14636 TAP_840
*14637 TAP_841
*14638 TAP_842
*14639 TAP_843
*14640 TAP_844
*14641 TAP_845
*14642 TAP_846
*14643 TAP_847
*14644 TAP_848
*14645 TAP_849
*14646 TAP_850
*14647 TAP_851
*14648 TAP_852
*14649 TAP_853
*14650 TAP_854
*14651 TAP_855
*14652 TAP_856
*14653 TAP_857
*14654 TAP_858
*14655 TAP_859
*14656 TAP_860
*14657 TAP_861
*14658 TAP_862
*14659 TAP_863
*14660 TAP_864
*14661 TAP_865
*14662 TAP_866
*14663 TAP_867
*14664 TAP_868
*14665 TAP_869
*14666 TAP_870
*14667 TAP_871
*14668 TAP_872
*14669 TAP_873
*14670 TAP_874
*14671 TAP_875
*14672 TAP_876
*14673 TAP_877
*14674 TAP_878
*14675 TAP_879
*14676 TAP_880
*14677 TAP_881
*14678 TAP_882
*14679 TAP_883
*14680 TAP_884
*14681 TAP_885
*14682 TAP_886
*14683 TAP_887
*14684 TAP_888
*14685 TAP_889
*14686 TAP_890
*14687 TAP_891
*14688 TAP_892
*14689 TAP_893
*14690 TAP_894
*14691 TAP_895
*14692 TAP_896
*14693 TAP_897
*14694 TAP_898
*14695 TAP_899
*14696 TAP_900
*14697 TAP_901
*14698 TAP_902
*14699 TAP_903
*14700 TAP_904
*14701 TAP_905
*14702 TAP_906
*14703 TAP_907
*14704 TAP_908
*14705 TAP_909
*14706 TAP_910
*14707 TAP_911
*14708 TAP_912
*14709 TAP_913
*14710 TAP_914
*14711 TAP_915
*14712 TAP_916
*14713 TAP_917
*14714 TAP_918
*14715 TAP_919
*14716 TAP_920
*14717 TAP_921
*14718 TAP_922
*14719 TAP_923
*14720 TAP_924
*14721 TAP_925
*14722 TAP_926
*14723 TAP_927
*14724 TAP_928
*14725 TAP_929
*14726 TAP_930
*14727 TAP_931
*14728 TAP_932
*14729 TAP_933
*14730 TAP_934
*14731 TAP_935
*14732 TAP_936
*14733 TAP_937
*14734 TAP_938
*14735 TAP_939
*14736 TAP_940
*14737 TAP_941
*14738 TAP_942
*14739 TAP_943
*14740 TAP_944
*14741 TAP_945
*14742 TAP_946
*14743 TAP_947
*14744 TAP_948
*14745 TAP_949
*14746 TAP_950
*14747 TAP_951
*14748 TAP_952
*14749 TAP_953
*14750 TAP_954
*14751 TAP_955
*14752 TAP_956
*14753 TAP_957
*14754 TAP_958
*14755 TAP_959
*14756 TAP_960
*14757 TAP_961
*14758 TAP_962
*14759 TAP_963
*14760 TAP_964
*14761 TAP_965
*14762 TAP_966
*14763 TAP_967
*14764 TAP_968
*14765 TAP_969
*14766 TAP_970
*14767 TAP_971
*14768 TAP_972
*14769 TAP_973
*14770 TAP_974
*14771 TAP_975
*14772 TAP_976
*14773 TAP_977
*14774 TAP_978
*14775 TAP_979
*14776 TAP_980
*14777 TAP_981
*14778 TAP_982
*14779 TAP_983
*14780 TAP_984
*14781 TAP_985
*14782 TAP_986
*14783 TAP_987
*14784 TAP_988
*14785 TAP_989
*14786 TAP_990
*14787 TAP_991
*14788 TAP_992
*14789 TAP_993
*14790 TAP_994
*14791 TAP_995
*14792 TAP_996
*14793 TAP_997
*14794 TAP_998
*14795 TAP_999
*14796 _197_
*14797 _198_
*14798 _199_
*14799 _200_
*14800 _201_
*14801 _202_
*14802 _203_
*14803 _204_
*14804 _205_
*14805 _206_
*14806 _207_
*14807 _208_
*14808 _209_
*14809 _210_
*14810 _211_
*14811 _212_
*14812 _213_
*14813 _214_
*14814 _215_
*14815 _216_
*14816 _217_
*14817 _218_
*14818 _219_
*14819 _220_
*14820 _221_
*14821 _222_
*14822 _223_
*14823 _224_
*14824 _225_
*14825 _226_
*14826 _227_
*14827 _228_
*14828 _229_
*14829 _230_
*14830 _231_
*14831 _232_
*14832 _233_
*14833 _234_
*14834 _235_
*14835 _236_
*14836 _237_
*14837 _238_
*14838 _239_
*14839 _240_
*14840 _241_
*14841 _242_
*14842 _243_
*14843 _244_
*14844 _245_
*14845 _246_
*14846 _247_
*14847 _248_
*14848 _249_
*14849 _250_
*14850 _251_
*14851 _252_
*14852 _253_
*14853 _254_
*14854 _255_
*14855 _256_
*14856 _257_
*14857 _258_
*14858 _259_
*14859 _260_
*14860 _261_
*14861 _262_
*14862 _263_
*14863 _264_
*14864 _265_
*14865 _266_
*14866 _267_
*14867 _268_
*14868 _269_
*14869 _270_
*14870 _271_
*14871 _272_
*14872 _273_
*14873 _274_
*14874 _275_
*14875 _276_
*14876 _277_
*14877 _278_
*14878 _279_
*14879 _280_
*14880 _281_
*14881 _282_
*14882 _283_
*14883 _284_
*14884 _285_
*14885 _286_
*14886 _287_
*14887 _288_
*14888 _289_
*14889 _290_
*14890 _291_
*14891 _292_
*14892 _293_
*14893 _294_
*14894 _295_
*14895 _296_
*14896 _297_
*14897 _298_
*14898 _299_
*14899 _300_
*14900 _301_
*14901 _302_
*14902 _303_
*14903 _304_
*14904 _305_
*14905 _306_
*14906 _307_
*14907 _308_
*14908 _309_
*14909 _310_
*14910 _311_
*14911 _312_
*14912 _313_
*14913 _314_
*14914 _315_
*14915 _316_
*14916 _317_
*14917 _318_
*14918 _319_
*14919 _320_
*14920 _321_
*14921 _322_
*14922 _323_
*14923 _324_
*14924 _325_
*14925 _326_
*14926 _327_
*14927 _328_
*14928 _329_
*14929 _330_
*14930 _331_
*14931 _332_
*14932 _333_
*14933 _334_
*14934 _335_
*14935 _336_
*14936 _337_
*14937 _338_
*14938 _339_
*14939 _340_
*14940 _341_
*14941 _342_
*14942 _343_
*14943 _344_
*14944 _345_
*14945 _346_
*14946 _347_
*14947 _348_
*14948 _349_
*14949 _350_
*14950 _351_
*14951 _352_
*14952 _353_
*14953 _354_
*14954 _355_
*14955 _356_
*14956 _357_
*14957 _358_
*14958 _359_
*14959 _360_
*14960 _361_
*14961 _362_
*14962 _363_
*14963 _364_
*14964 _365_
*14965 _366_
*14966 _367_
*14967 _368_
*14968 _369_
*14969 _370_
*14970 _371_
*14971 _372_
*14972 _373_
*14973 _374_
*14974 _375_
*14975 _376_
*14976 _377_
*14977 _378_
*14978 _379_
*14979 _380_
*14980 _381_
*14981 _382_
*14982 _383_
*14983 _384_
*14984 _385_
*14985 _386_
*14986 _387_
*14987 _388_
*14988 _389_
*14989 _390_
*14990 _391_
*14991 _392_
*14992 _393_
*14993 _394_
*14994 _395_
*14995 _396_
*14996 _397_
*14997 _398_
*14998 _399_
*14999 _400_
*15000 _401_
*15001 _402_
*15002 _403_
*15003 _404_
*15004 _405_
*15005 _406_
*15006 _407_
*15007 _408_
*15008 _409_
*15009 _410_
*15010 _411_
*15011 _412_
*15012 _413_
*15013 _414_
*15014 _415_
*15015 _416_
*15016 _417_
*15017 _418_
*15018 _419_
*15019 _420_
*15020 _421_
*15021 _422_
*15022 _423_
*15023 _424_
*15024 _425_
*15025 _427_
*15026 _428_
*15027 clkbuf_0_clk
*15028 clkbuf_1_0__f_clk
*15029 clkbuf_1_1__f_clk
*15030 computer_30
*15031 hold1
*15032 hold2
*15033 hold3
*15034 input1
*15035 max_cap1
*15036 max_cap28
*15037 max_cap29
*15038 output10
*15039 output11
*15040 output12
*15041 output13
*15042 output14
*15043 output15
*15044 output16
*15045 output17
*15046 output18
*15047 output19
*15048 output2
*15049 output20
*15050 output21
*15051 output22
*15052 output23
*15053 output24
*15054 output25
*15055 output26
*15056 output27
*15057 output3
*15058 output4
*15059 output5
*15060 output6
*15061 output7
*15062 output8
*15063 output9

*PORTS
A_out[0] O
A_out[1] O
A_out[2] O
A_out[3] O
A_out[4] O
A_out[5] O
A_out[6] O
A_out[7] O
B_out[0] O
B_out[1] O
B_out[2] O
B_out[3] O
B_out[4] O
B_out[5] O
B_out[6] O
B_out[7] O
clk I
flags_out[0] O
flags_out[1] O
flags_out[2] O
flags_out[3] O
last_opcode_out[0] O
last_opcode_out[1] O
last_opcode_out[2] O
last_opcode_out[3] O
last_opcode_out[4] O
last_opcode_out[5] O
last_opcode_out[6] O
rst I

*D_NET *1 0.00122451
*CONN
*P A_out[0] O
*I *15048:X O *D sky130_fd_sc_hd__clkbuf_4
*CAP
1 A_out[0] 0.000576063
2 *15048:X 0.000576063
3 A_out[0] *243:51 7.23805e-05
*RES
1 *15048:X A_out[0] 49.3492 
*END

*D_NET *2 0.00110393
*CONN
*P A_out[1] O
*I *15057:X O *D sky130_fd_sc_hd__clkbuf_4
*CAP
1 A_out[1] 0.000152733
2 *15057:X 0.000399233
3 *2:10 0.000551966
*RES
1 *15057:X *2:10 44.6596 
2 *2:10 A_out[1] 8.58613 
*END

*D_NET *3 0.000954428
*CONN
*P A_out[2] O
*I *15058:X O *D sky130_fd_sc_hd__clkbuf_4
*CAP
1 A_out[2] 0.000477214
2 *15058:X 0.000477214
*RES
1 *15058:X A_out[2] 48.2897 
*END

*D_NET *4 0.000948507
*CONN
*P A_out[3] O
*I *15059:X O *D sky130_fd_sc_hd__clkbuf_4
*CAP
1 A_out[3] 0.000445732
2 *15059:X 0.000445732
3 A_out[3] *259:16 5.70419e-05
*RES
1 *15059:X A_out[3] 47.0936 
*END

*D_NET *5 0.000870118
*CONN
*P A_out[4] O
*I *15060:X O *D sky130_fd_sc_hd__clkbuf_4
*CAP
1 A_out[4] 0.000435059
2 *15060:X 0.000435059
*RES
1 *15060:X A_out[4] 47.5907 
*END

*D_NET *6 0.00106983
*CONN
*P A_out[5] O
*I *15061:X O *D sky130_fd_sc_hd__buf_2
*CAP
1 A_out[5] 0.000523839
2 *15061:X 0.000523839
3 A_out[5] *259:20 2.21565e-05
*RES
1 *15061:X A_out[5] 48.0464 
*END

*D_NET *7 0.000993452
*CONN
*P A_out[6] O
*I *15062:X O *D sky130_fd_sc_hd__buf_2
*CAP
1 A_out[6] 0.000489999
2 *15062:X 0.000489999
3 A_out[6] *252:35 1.34542e-05
*RES
1 *15062:X A_out[6] 48.1093 
*END

*D_NET *8 0.000945841
*CONN
*P A_out[7] O
*I *15063:X O *D sky130_fd_sc_hd__clkbuf_4
*CAP
1 A_out[7] 0.000446174
2 *15063:X 0.000446174
3 A_out[7] *259:14 8.82787e-06
4 A_out[7] *259:16 4.46649e-05
*RES
1 *15063:X A_out[7] 47.0936 
*END

*D_NET *9 0.00108289
*CONN
*P B_out[0] O
*I *15038:X O *D sky130_fd_sc_hd__clkbuf_4
*CAP
1 B_out[0] 0.000541443
2 *15038:X 0.000541443
*RES
1 *15038:X B_out[0] 48.0464 
*END

*D_NET *10 0.00107647
*CONN
*P B_out[1] O
*I *15039:X O *D sky130_fd_sc_hd__clkbuf_4
*CAP
1 B_out[1] 2.12208e-05
2 *15039:X 0.000517013
3 *10:16 0.000538234
*RES
1 *15039:X *10:16 49.7346 
2 *10:16 B_out[1] 0.776786 
*END

*D_NET *11 0.00126334
*CONN
*P B_out[2] O
*I *15040:X O *D sky130_fd_sc_hd__buf_2
*CAP
1 B_out[2] 0.000243853
2 *15040:X 0.000378083
3 *11:12 0.000621936
4 *11:12 *15040:A 1.94693e-05
5 *11:12 *243:53 0
*RES
1 *15040:X *11:12 44.4318 
2 *11:12 B_out[2] 8.9296 
*END

*D_NET *12 0.000996783
*CONN
*P B_out[3] O
*I *15041:X O *D sky130_fd_sc_hd__clkbuf_4
*CAP
1 B_out[3] 0.000498391
2 *15041:X 0.000498391
*RES
1 *15041:X B_out[3] 47.57 
*END

*D_NET *13 0.00101174
*CONN
*P B_out[4] O
*I *15042:X O *D sky130_fd_sc_hd__clkbuf_4
*CAP
1 B_out[4] 0.000505868
2 *15042:X 0.000505868
*RES
1 *15042:X B_out[4] 47.57 
*END

*D_NET *14 0.00118343
*CONN
*P B_out[5] O
*I *15043:X O *D sky130_fd_sc_hd__clkbuf_4
*CAP
1 B_out[5] 0.000591713
2 *15043:X 0.000591713
*RES
1 *15043:X B_out[5] 48.5163 
*END

*D_NET *15 0.00107797
*CONN
*P B_out[6] O
*I *15044:X O *D sky130_fd_sc_hd__buf_2
*CAP
1 B_out[6] 0.000515309
2 *15044:X 0.000515309
3 B_out[6] *243:53 2.26497e-05
4 B_out[6] *255:64 2.47015e-05
*RES
1 *15044:X B_out[6] 48.1093 
*END

*D_NET *16 0.00100658
*CONN
*P B_out[7] O
*I *15045:X O *D sky130_fd_sc_hd__clkbuf_4
*CAP
1 B_out[7] 0.000503292
2 *15045:X 0.000503292
*RES
1 *15045:X B_out[7] 47.57 
*END

*D_NET *19 0.0442402
*CONN
*P clk I
*I *15027:A I *D sky130_fd_sc_hd__clkbuf_16
*CAP
1 clk 0.00827052
2 *15027:A 0
3 *19:9 0.0137115
4 *19:7 0.0137115
5 *19:5 0.00827052
6 *19:9 *14875:A 0.000173264
7 *19:9 *237:12 0.000102971
*RES
1 clk *19:5 188.645 
2 *19:5 *19:7 15 
3 *19:7 *19:9 237.883 
4 *19:9 *15027:A 23 
*END

*D_NET *20 0.000827729
*CONN
*P flags_out[0] O
*I *15046:X O *D sky130_fd_sc_hd__clkbuf_4
*CAP
1 flags_out[0] 0.000413865
2 *15046:X 0.000413865
*RES
1 *15046:X flags_out[0] 47.1143 
*END

*D_NET *21 0.000847949
*CONN
*P flags_out[1] O
*I *15047:X O *D sky130_fd_sc_hd__clkbuf_4
*CAP
1 flags_out[1] 0.000423974
2 *15047:X 0.000423974
*RES
1 *15047:X flags_out[1] 47.1143 
*END

*D_NET *22 0.000989771
*CONN
*P flags_out[2] O
*I *15049:X O *D sky130_fd_sc_hd__buf_2
*CAP
1 flags_out[2] 0.000494885
2 *15049:X 0.000494885
*RES
1 *15049:X flags_out[2] 48.1093 
*END

*D_NET *23 0.000853188
*CONN
*P flags_out[3] O
*I *15050:X O *D sky130_fd_sc_hd__clkbuf_4
*CAP
1 flags_out[3] 0.000426594
2 *15050:X 0.000426594
*RES
1 *15050:X flags_out[3] 47.1143 
*END

*D_NET *24 0.000988612
*CONN
*P last_opcode_out[0] O
*I *15051:X O *D sky130_fd_sc_hd__clkbuf_4
*CAP
1 last_opcode_out[0] 0.000152733
2 *15051:X 0.000341573
3 *24:10 0.000494306
*RES
1 *15051:X *24:10 44.5354 
2 *24:10 last_opcode_out[0] 8.58613 
*END

*D_NET *25 0.0010515
*CONN
*P last_opcode_out[1] O
*I *15052:X O *D sky130_fd_sc_hd__buf_2
*CAP
1 last_opcode_out[1] 0.000508055
2 *15052:X 0.000508055
3 last_opcode_out[1] *243:53 2.26497e-05
4 last_opcode_out[1] *255:68 1.27424e-05
*RES
1 *15052:X last_opcode_out[1] 48.1093 
*END

*D_NET *26 0.00105376
*CONN
*P last_opcode_out[2] O
*I *15053:X O *D sky130_fd_sc_hd__clkbuf_4
*CAP
1 last_opcode_out[2] 0.000526878
2 *15053:X 0.000526878
*RES
1 *15053:X last_opcode_out[2] 48.7278 
*END

*D_NET *27 0.000926651
*CONN
*P last_opcode_out[3] O
*I *15054:X O *D sky130_fd_sc_hd__clkbuf_4
*CAP
1 last_opcode_out[3] 0.000457395
2 *15054:X 0.000457395
3 last_opcode_out[3] *268:40 1.18615e-05
*RES
1 *15054:X last_opcode_out[3] 47.0936 
*END

*D_NET *28 0.00110893
*CONN
*P last_opcode_out[4] O
*I *15055:X O *D sky130_fd_sc_hd__clkbuf_4
*CAP
1 last_opcode_out[4] 0.00051502
2 *15055:X 0.00051502
3 last_opcode_out[4] *15055:A 7.88926e-05
*RES
1 *15055:X last_opcode_out[4] 48.0464 
*END

*D_NET *29 0.00108116
*CONN
*P last_opcode_out[5] O
*I *15030:LO O *D sky130_fd_sc_hd__conb_1
*CAP
1 last_opcode_out[5] 0.000152733
2 *15030:LO 0.000387849
3 *29:10 0.000540582
*RES
1 *15030:LO *29:10 45.5918 
2 *29:10 last_opcode_out[5] 8.58613 
*END

*D_NET *30 0.00198916
*CONN
*P last_opcode_out[6] O
*I *15056:X O *D sky130_fd_sc_hd__clkbuf_4
*CAP
1 last_opcode_out[6] 0.000624629
2 *15056:X 0.00036995
3 *30:8 0.000994579
*RES
1 *15056:X *30:8 44.3386 
2 *30:8 last_opcode_out[6] 18.7672 
*END

*D_NET *31 0.00179263
*CONN
*P rst I
*I *15034:A I *D sky130_fd_sc_hd__buf_1
*CAP
1 rst 0.000826864
2 *15034:A 0
3 *31:15 0.000826864
4 *31:15 *240:6 5.12254e-05
5 *31:15 *271:38 8.76787e-05
*RES
1 rst *31:15 30.0277 
2 *31:15 *15034:A 23 
*END

*D_NET *32 0.000868135
*CONN
*I *14997:D I *D sky130_fd_sc_hd__dfrtp_4
*I *14956:X O *D sky130_fd_sc_hd__a21bo_1
*CAP
1 *14997:D 0.000308191
2 *14956:X 6.20829e-05
3 *32:8 0.000370274
4 *14997:D *239:62 4.12995e-05
5 *32:8 *231:31 8.62876e-05
*RES
1 *14956:X *32:8 39.2014 
2 *32:8 *14997:D 42.4536 
*END

*D_NET *33 0.000619297
*CONN
*I *14998:D I *D sky130_fd_sc_hd__dfrtp_4
*I *14960:X O *D sky130_fd_sc_hd__clkbuf_1
*CAP
1 *14998:D 0.000196331
2 *14960:X 9.03707e-05
3 *33:8 0.000286702
4 *33:8 *34:10 4.58924e-05
5 *33:8 *239:32 0
6 *33:8 *239:36 0
*RES
1 *14960:X *33:8 39.9057 
2 *33:8 *14998:D 41.48 
*END

*D_NET *34 0.00144526
*CONN
*I *14999:D I *D sky130_fd_sc_hd__dfrtp_4
*I *14963:X O *D sky130_fd_sc_hd__o2bb2a_1
*CAP
1 *14999:D 8.88631e-05
2 *14963:X 0.000515363
3 *34:10 0.000604226
4 *14999:D *239:26 7.45969e-05
5 *34:10 *41:8 0.000116314
6 *34:10 *42:10 0
7 *34:10 *221:59 0
8 *34:10 *221:81 0
9 *33:8 *34:10 4.58924e-05
*RES
1 *14963:X *34:10 47.5907 
2 *34:10 *14999:D 40.0507 
*END

*D_NET *35 0.000356047
*CONN
*I *15000:D I *D sky130_fd_sc_hd__dfrtp_4
*I *14965:X O *D sky130_fd_sc_hd__o21a_1
*CAP
1 *15000:D 0
2 *14965:X 0.000103155
3 *35:10 0.000103155
4 *35:10 *205:42 0.000114083
5 *35:10 *239:26 3.56537e-05
*RES
1 *14965:X *35:10 40.175 
2 *35:10 *15000:D 38 
*END

*D_NET *36 0.0132262
*CONN
*I *14957:A2 I *D sky130_fd_sc_hd__o21a_1
*I *14800:B I *D sky130_fd_sc_hd__and2b_1
*I *14796:C I *D sky130_fd_sc_hd__or3_4
*I *14961:A I *D sky130_fd_sc_hd__nand2_1
*I *14831:C I *D sky130_fd_sc_hd__nor3_2
*I *14803:A I *D sky130_fd_sc_hd__or2b_1
*I *14958:B I *D sky130_fd_sc_hd__and2b_1
*I *14819:C I *D sky130_fd_sc_hd__nor4_1
*I *14799:A_N I *D sky130_fd_sc_hd__and2b_1
*I *14956:B1_N I *D sky130_fd_sc_hd__a21bo_1
*I *14997:Q O *D sky130_fd_sc_hd__dfrtp_4
*CAP
1 *14957:A2 2.05866e-05
2 *14800:B 5.60295e-05
3 *14796:C 0.000131189
4 *14961:A 0.000139557
5 *14831:C 0
6 *14803:A 0.000533676
7 *14958:B 3.65273e-05
8 *14819:C 0
9 *14799:A_N 0
10 *14956:B1_N 0.000256177
11 *14997:Q 0.000122548
12 *36:87 0.000394542
13 *36:62 0.00115682
14 *36:58 0.000874811
15 *36:47 0.000210457
16 *36:45 0.000430547
17 *36:36 0.000994148
18 *36:32 0.00126675
19 *36:23 0.000360381
20 *36:12 0.000648521
21 *36:8 0.000286303
22 *14796:C *14796:B 0.000299117
23 *14796:C *37:75 0.000440169
24 *14796:C *38:50 9.84851e-05
25 *14800:B *14796:B 0.000141052
26 *14800:B *38:50 9.84851e-05
27 *14800:B *233:10 0.000268873
28 *14803:A *14805:B 0.000523689
29 *14803:A *14831:B 1.03836e-05
30 *14803:A *232:10 5.41288e-05
31 *14956:B1_N *14956:A1 0.000176355
32 *14956:B1_N *37:31 2.18409e-05
33 *14957:A2 *14957:A1 5.67058e-05
34 *14958:B *233:10 9.84794e-05
35 *14961:A *14961:B 9.17704e-05
36 *14961:A *37:10 1.58805e-05
37 *14961:A *218:10 0
38 *36:8 *14957:A1 9.45591e-05
39 *36:12 *180:36 1.14452e-05
40 *36:12 *205:42 0
41 *36:12 *214:8 2.54046e-05
42 *36:23 *37:18 0.000384805
43 *36:23 *205:42 0
44 *36:23 *214:8 2.19643e-05
45 *36:32 *37:12 0.000110922
46 *36:32 *37:18 8.11552e-05
47 *36:32 *205:42 0
48 *36:36 *14819:A 5.41385e-05
49 *36:36 *14819:B 5.10686e-05
50 *36:45 *37:10 9.03784e-05
51 *36:45 *37:12 0.000241616
52 *36:45 *205:42 0
53 *36:47 *14958:A_N 1.94693e-05
54 *36:47 *37:75 1.59094e-05
55 *36:47 *233:10 0.000137651
56 *36:58 *37:10 7.91493e-05
57 *36:58 *218:10 0
58 *36:62 *14831:A 7.42621e-05
59 *36:62 *14831:B 5.67058e-05
60 *36:62 *37:8 9.67842e-05
61 *36:87 *37:75 0.000347158
62 *36:87 *233:10 0.000916687
*RES
1 *14997:Q *36:8 25.5479 
2 *36:8 *36:12 16.9057 
3 *36:12 *14956:B1_N 41.9564 
4 *36:12 *36:23 6.13143 
5 *36:23 *14799:A_N 38 
6 *36:23 *36:32 2.61 
7 *36:32 *36:36 28.0086 
8 *36:36 *14819:C 23 
9 *36:32 *36:45 19.3707 
10 *36:45 *36:47 1.57429 
11 *36:47 *14958:B 24.0979 
12 *36:47 *36:58 17.2579 
13 *36:58 *36:62 26.5793 
14 *36:62 *14803:A 31.6171 
15 *36:62 *14831:C 23 
16 *36:58 *14961:A 40.9621 
17 *36:45 *36:87 10.15 
18 *36:87 *14796:C 28.7586 
19 *36:87 *14800:B 26.0036 
20 *36:8 *14957:A2 23.6214 
*END

*D_NET *37 0.015873
*CONN
*I *14961:B I *D sky130_fd_sc_hd__nand2_1
*I *14830:A1 I *D sky130_fd_sc_hd__o221ai_4
*I *14803:B_N I *D sky130_fd_sc_hd__or2b_1
*I *14819:D I *D sky130_fd_sc_hd__nor4_1
*I *14958:A_N I *D sky130_fd_sc_hd__and2b_1
*I *14799:B I *D sky130_fd_sc_hd__and2b_1
*I *14864:A I *D sky130_fd_sc_hd__and2_1
*I *14875:A I *D sky130_fd_sc_hd__nand2_1
*I *14956:A1 I *D sky130_fd_sc_hd__a21bo_1
*I *14998:Q O *D sky130_fd_sc_hd__dfrtp_4
*CAP
1 *14961:B 0.000114585
2 *14830:A1 0.000417553
3 *14803:B_N 0.0002166
4 *14819:D 0.000367279
5 *14958:A_N 3.75247e-05
6 *14799:B 5.02599e-05
7 *14864:A 0
8 *14875:A 0.000346254
9 *14956:A1 0.000154667
10 *14998:Q 0.000252214
11 *37:77 0.000583879
12 *37:75 0.00132874
13 *37:64 0.000948714
14 *37:31 0.00116806
15 *37:18 0.00115088
16 *37:12 0.000405593
17 *37:10 0.000354741
18 *37:8 0.000540616
19 *14799:B *226:19 9.67842e-05
20 *14803:B_N *39:29 0
21 *14803:B_N *39:85 1.58805e-05
22 *14803:B_N *231:16 2.68708e-05
23 *14803:B_N *232:10 5.50049e-05
24 *14819:D *14819:A 2.93747e-05
25 *14819:D *39:31 0
26 *14819:D *39:85 0
27 *14819:D *101:10 0.00029519
28 *14830:A1 *14806:A 5.3304e-05
29 *14830:A1 *39:85 9.67842e-05
30 *14830:A1 *101:16 0.000223692
31 *14830:A1 *109:14 0.000579172
32 *14830:A1 *231:119 0.000474957
33 *14830:A1 *233:10 0.000135415
34 *14875:A *180:52 0.000387957
35 *14875:A *267:16 0
36 *14875:A *267:55 0.000166666
37 *14956:A1 *231:18 0.000241539
38 *14956:A1 *233:154 5.50049e-05
39 *14961:B *205:42 0
40 *37:10 *205:42 0
41 *37:10 *218:10 0
42 *37:10 *233:27 0
43 *37:12 *214:8 4.49946e-05
44 *37:12 *214:29 0
45 *37:18 *214:8 0.00023695
46 *37:31 *14950:A1 0.000119046
47 *37:31 *180:52 0.00048309
48 *37:31 *205:40 3.35885e-06
49 *37:31 *205:42 0.000147931
50 *37:31 *231:18 0.000214016
51 *37:31 *257:10 0.000655146
52 *37:31 *260:14 0
53 *37:31 *263:8 0
54 *37:31 *267:16 0
55 *37:75 *14796:A 1.37232e-05
56 *37:75 *14796:B 2.4754e-05
57 *37:75 *39:64 3.53115e-05
58 *37:75 *39:85 4.21471e-05
59 *37:75 *101:16 3.91386e-05
60 *37:75 *227:10 5.50106e-05
61 *14796:C *37:75 0.000440169
62 *14956:B1_N *14956:A1 0.000176355
63 *14956:B1_N *37:31 2.18409e-05
64 *14961:A *14961:B 9.17704e-05
65 *14961:A *37:10 1.58805e-05
66 *19:9 *14875:A 0.000173264
67 *36:23 *37:18 0.000384805
68 *36:32 *37:12 0.000110922
69 *36:32 *37:18 8.11552e-05
70 *36:45 *37:10 9.03784e-05
71 *36:45 *37:12 0.000241616
72 *36:47 *14958:A_N 1.94693e-05
73 *36:47 *37:75 1.59094e-05
74 *36:58 *37:10 7.91493e-05
75 *36:62 *37:8 9.67842e-05
76 *36:87 *37:75 0.000347158
*RES
1 *14998:Q *37:8 42.4329 
2 *37:8 *37:10 3.66643 
3 *37:10 *37:12 4.72286 
4 *37:12 *37:18 21.6286 
5 *37:18 *14956:A1 28.3857 
6 *37:18 *37:31 36.1286 
7 *37:31 *14875:A 47.9014 
8 *37:31 *14864:A 38 
9 *37:12 *14799:B 39.0979 
10 *37:10 *37:64 15 
11 *37:64 *14958:A_N 23.6214 
12 *37:64 *37:75 19.0986 
13 *37:75 *37:77 15 
14 *37:77 *14819:D 44.7114 
15 *37:77 *14803:B_N 41.5836 
16 *37:75 *14830:A1 39.0329 
17 *37:8 *14961:B 40.61 
*END

*D_NET *38 0.00620982
*CONN
*I *14962:A I *D sky130_fd_sc_hd__xnor2_1
*I *14805:B I *D sky130_fd_sc_hd__and2b_1
*I *14831:B I *D sky130_fd_sc_hd__nor3_2
*I *14796:B I *D sky130_fd_sc_hd__or3_4
*I *14800:A_N I *D sky130_fd_sc_hd__and2b_1
*I *14819:B I *D sky130_fd_sc_hd__nor4_1
*I *14964:A I *D sky130_fd_sc_hd__inv_2
*I *14999:Q O *D sky130_fd_sc_hd__dfrtp_4
*CAP
1 *14962:A 0
2 *14805:B 0.000163833
3 *14831:B 2.18946e-05
4 *14796:B 7.28226e-05
5 *14800:A_N 0
6 *14819:B 0.000255025
7 *14964:A 2.34823e-05
8 *14999:Q 0.000112641
9 *38:64 0.000185728
10 *38:50 9.29747e-05
11 *38:35 0.000513633
12 *38:33 0.000486137
13 *38:20 0.000823019
14 *38:16 0.000640207
15 *38:8 0.000200993
16 *14796:B *39:64 9.84851e-05
17 *14796:B *233:10 6.51746e-05
18 *14805:B *14831:A 3.3958e-05
19 *14805:B *39:25 0.000148688
20 *14819:B *14819:A 5.50106e-05
21 *14819:B *239:8 6.70914e-05
22 *14819:B *260:14 0
23 *14831:B *14831:A 9.84794e-05
24 *38:8 *205:42 0
25 *38:8 *221:59 0
26 *38:16 *14962:B 7.69576e-05
27 *38:20 *14962:B 7.73389e-05
28 *38:20 *217:21 0.000117284
29 *38:20 *219:10 7.05156e-05
30 *38:20 *221:81 0
31 *38:33 *39:12 7.21237e-05
32 *38:33 *260:8 0.000270682
33 *38:33 *260:14 0
34 *38:35 *39:12 4.6318e-06
35 *38:35 *239:8 5.72729e-05
36 *38:35 *260:14 0
37 *14796:C *14796:B 0.000299117
38 *14796:C *38:50 9.84851e-05
39 *14800:B *14796:B 0.000141052
40 *14800:B *38:50 9.84851e-05
41 *14803:A *14805:B 0.000523689
42 *14803:A *14831:B 1.03836e-05
43 *36:36 *14819:B 5.10686e-05
44 *36:62 *14831:B 5.67058e-05
45 *37:75 *14796:B 2.4754e-05
*RES
1 *14999:Q *38:8 39.9057 
2 *38:8 *38:16 17.4443 
3 *38:16 *38:20 10.6471 
4 *38:20 *14964:A 23.4971 
5 *38:20 *38:33 20.7379 
6 *38:33 *38:35 2.96214 
7 *38:35 *14819:B 43.0129 
8 *38:35 *38:50 16.0979 
9 *38:50 *14800:A_N 23 
10 *38:50 *14796:B 26.9564 
11 *38:33 *38:64 15 
12 *38:64 *14831:B 24.0979 
13 *38:64 *14805:B 29.235 
14 *38:16 *14962:A 23 
*END

*D_NET *39 0.0065121
*CONN
*I *15033:A I *D sky130_fd_sc_hd__dlygate4sd3_1
*I *14805:A_N I *D sky130_fd_sc_hd__and2b_1
*I *14827:A1 I *D sky130_fd_sc_hd__o31a_2
*I *14796:A I *D sky130_fd_sc_hd__or3_4
*I *14819:A I *D sky130_fd_sc_hd__nor4_1
*I *14817:A1 I *D sky130_fd_sc_hd__o31a_1
*I *14801:A I *D sky130_fd_sc_hd__or3_1
*I *14831:A I *D sky130_fd_sc_hd__nor3_2
*I *15000:Q O *D sky130_fd_sc_hd__dfrtp_4
*CAP
1 *15033:A 6.80978e-05
2 *14805:A_N 0
3 *14827:A1 0
4 *14796:A 3.40974e-05
5 *14819:A 0.000141368
6 *14817:A1 2.55913e-05
7 *14801:A 1.08768e-05
8 *14831:A 0.000168264
9 *15000:Q 8.82946e-05
10 *39:85 0.000288724
11 *39:64 0.000357589
12 *39:35 0.000217337
13 *39:31 0.00051923
14 *39:29 0.000405623
15 *39:25 0.000271669
16 *39:12 0.000503556
17 *39:8 0.000393878
18 *14801:A *226:23 5.67058e-05
19 *14801:A *227:23 5.50049e-05
20 *14817:A1 *226:23 0.000173898
21 *14817:A1 *227:23 0.000185434
22 *14819:A *101:10 1.41077e-05
23 *14831:A *113:10 9.67842e-05
24 *39:8 *239:8 0.000169683
25 *39:12 *239:8 0.000429602
26 *39:25 *113:10 9.30054e-05
27 *39:29 *239:8 0
28 *39:31 *227:10 6.07826e-05
29 *39:31 *239:8 0
30 *39:31 *242:38 0
31 *39:35 *226:40 0
32 *39:35 *227:10 0.000122407
33 *39:35 *227:36 0
34 *39:35 *231:16 0
35 *39:35 *242:38 0
36 *39:64 *233:10 0.000185434
37 *39:85 *101:10 8.62876e-05
38 *39:85 *226:40 3.7122e-06
39 *39:85 *231:16 0.000185755
40 *39:85 *233:10 0.0002263
41 *14796:B *39:64 9.84851e-05
42 *14803:B_N *39:29 0
43 *14803:B_N *39:85 1.58805e-05
44 *14805:B *14831:A 3.3958e-05
45 *14805:B *39:25 0.000148688
46 *14819:B *14819:A 5.50106e-05
47 *14819:D *14819:A 2.93747e-05
48 *14819:D *39:31 0
49 *14819:D *39:85 0
50 *14830:A1 *39:85 9.67842e-05
51 *14831:B *14831:A 9.84794e-05
52 *36:36 *14819:A 5.41385e-05
53 *36:62 *14831:A 7.42621e-05
54 *37:75 *14796:A 1.37232e-05
55 *37:75 *39:64 3.53115e-05
56 *37:75 *39:85 4.21471e-05
57 *38:33 *39:12 7.21237e-05
58 *38:35 *39:12 4.6318e-06
*RES
1 *15000:Q *39:8 40.2579 
2 *39:8 *39:12 20.7793 
3 *39:12 *14831:A 27.4743 
4 *39:12 *39:25 3.00357 
5 *39:25 *39:29 17.61 
6 *39:29 *39:31 3.31429 
7 *39:31 *39:35 18.3143 
8 *39:35 *14801:A 23.6214 
9 *39:35 *14817:A1 25.0507 
10 *39:31 *14819:A 41.0243 
11 *39:29 *39:64 17.0507 
12 *39:64 *14796:A 23.8493 
13 *39:64 *39:85 36.7529 
14 *39:85 *14827:A1 23 
15 *39:25 *14805:A_N 23 
16 *39:8 *15033:A 39.0979 
*END

*D_NET *40 0.000624002
*CONN
*I *14997:RESET_B I *D sky130_fd_sc_hd__dfrtp_4
*I *14968:Y O *D sky130_fd_sc_hd__inv_2
*CAP
1 *14997:RESET_B 0
2 *14968:Y 0.00010479
3 *40:10 0.00010479
4 *40:10 *14968:A 1.94812e-05
5 *40:10 *221:81 0.00019747
6 *40:10 *233:35 0.00019747
*RES
1 *14968:Y *40:10 41.2314 
2 *40:10 *14997:RESET_B 15 
*END

*D_NET *41 0.000240566
*CONN
*I *14998:RESET_B I *D sky130_fd_sc_hd__dfrtp_4
*I *14969:Y O *D sky130_fd_sc_hd__inv_2
*CAP
1 *14998:RESET_B 0
2 *14969:Y 6.21258e-05
3 *41:8 6.21258e-05
4 *41:8 *221:81 0
5 *34:10 *41:8 0.000116314
*RES
1 *14969:Y *41:8 39.5536 
2 *41:8 *14998:RESET_B 15 
*END

*D_NET *42 0.000396895
*CONN
*I *14999:RESET_B I *D sky130_fd_sc_hd__dfrtp_4
*I *14970:Y O *D sky130_fd_sc_hd__inv_2
*CAP
1 *14999:RESET_B 0
2 *14970:Y 0.000184246
3 *42:10 0.000184246
4 *42:10 *14969:A 5.37348e-06
5 *42:10 *221:59 0
6 *42:10 *221:63 2.30292e-05
7 *34:10 *42:10 0
*RES
1 *14970:Y *42:10 41.2314 
2 *42:10 *14999:RESET_B 15 
*END

*D_NET *43 0.000428001
*CONN
*I *15000:RESET_B I *D sky130_fd_sc_hd__dfrtp_4
*I *14971:Y O *D sky130_fd_sc_hd__inv_2
*CAP
1 *15000:RESET_B 0
2 *14971:Y 0.000206401
3 *43:10 0.000206401
4 *43:10 *221:51 1.14876e-05
5 *43:10 *221:59 3.7122e-06
6 *43:10 *257:10 0
*RES
1 *14971:Y *43:10 41.2314 
2 *43:10 *15000:RESET_B 15 
*END

*D_NET *44 0.000691233
*CONN
*I *15001:RESET_B I *D sky130_fd_sc_hd__dfrtp_4
*I *14972:Y O *D sky130_fd_sc_hd__inv_2
*CAP
1 *15001:RESET_B 0
2 *14972:Y 0.000248458
3 *44:10 0.000248458
4 *44:10 *220:94 0.000194318
*RES
1 *14972:Y *44:10 43.1371 
2 *44:10 *15001:RESET_B 15 
*END

*D_NET *45 0.000468175
*CONN
*I *15002:RESET_B I *D sky130_fd_sc_hd__dfrtp_4
*I *14973:Y O *D sky130_fd_sc_hd__inv_2
*CAP
1 *15002:RESET_B 0
2 *14973:Y 0.000150753
3 *45:10 0.000150753
4 *45:10 *212:10 0.000114083
5 *45:10 *221:40 5.25848e-05
*RES
1 *14973:Y *45:10 40.6514 
2 *45:10 *15002:RESET_B 15 
*END

*D_NET *46 0.000338659
*CONN
*I *15003:RESET_B I *D sky130_fd_sc_hd__dfrtp_4
*I *14974:Y O *D sky130_fd_sc_hd__inv_2
*CAP
1 *15003:RESET_B 0
2 *14974:Y 9.40968e-05
3 *46:10 9.40968e-05
4 *46:10 *70:14 5.67058e-05
5 *46:10 *233:35 3.81391e-05
6 *46:10 *253:40 5.56203e-05
*RES
1 *14974:Y *46:10 40.175 
2 *46:10 *15003:RESET_B 15 
*END

*D_NET *47 0.000800777
*CONN
*I *15004:RESET_B I *D sky130_fd_sc_hd__dfrtp_4
*I *14975:Y O *D sky130_fd_sc_hd__inv_2
*CAP
1 *15004:RESET_B 9.61767e-05
2 *14975:Y 0.000235343
3 *47:8 0.00033152
4 *47:8 *268:12 0.000137737
*RES
1 *14975:Y *47:8 43.4271 
2 *47:8 *15004:RESET_B 16.5018 
*END

*D_NET *48 0.000858659
*CONN
*I *15005:RESET_B I *D sky130_fd_sc_hd__dfrtp_2
*I *14976:Y O *D sky130_fd_sc_hd__inv_2
*CAP
1 *15005:RESET_B 0
2 *14976:Y 0.000283539
3 *48:10 0.000283539
4 *48:10 *88:8 0.000110267
5 *48:10 *238:75 6.48049e-05
6 *48:10 *238:90 6.07076e-05
7 *48:10 *245:14 5.58003e-05
*RES
1 *14976:Y *48:10 44.0486 
2 *48:10 *15005:RESET_B 15 
*END

*D_NET *49 0.00033428
*CONN
*I *15006:RESET_B I *D sky130_fd_sc_hd__dfrtp_4
*I *14977:Y O *D sky130_fd_sc_hd__inv_2
*CAP
1 *15006:RESET_B 0
2 *14977:Y 0.00011043
3 *49:12 0.00011043
4 *49:12 *231:31 6.42942e-05
5 *49:12 *233:35 4.91264e-05
*RES
1 *14977:Y *49:12 40.32 
2 *49:12 *15006:RESET_B 15 
*END

*D_NET *50 0.000331414
*CONN
*I *15007:RESET_B I *D sky130_fd_sc_hd__dfrtp_4
*I *14979:Y O *D sky130_fd_sc_hd__inv_2
*CAP
1 *15007:RESET_B 0
2 *14979:Y 0.000136659
3 *50:12 0.000136659
4 *50:12 *269:21 5.80963e-05
*RES
1 *14979:Y *50:12 40.6721 
2 *50:12 *15007:RESET_B 15 
*END

*D_NET *51 0.000417844
*CONN
*I *15008:RESET_B I *D sky130_fd_sc_hd__dfrtp_4
*I *14980:Y O *D sky130_fd_sc_hd__inv_2
*CAP
1 *15008:RESET_B 0
2 *14980:Y 0.000180852
3 *51:10 0.000180852
4 *51:10 *222:70 0
5 *51:10 *253:27 2.76611e-06
6 *51:10 *253:40 5.33753e-05
7 *51:10 *272:31 0
*RES
1 *14980:Y *51:10 41.3557 
2 *51:10 *15008:RESET_B 15 
*END

*D_NET *52 0.000381673
*CONN
*I *15009:RESET_B I *D sky130_fd_sc_hd__dfrtp_4
*I *14981:Y O *D sky130_fd_sc_hd__inv_2
*CAP
1 *15009:RESET_B 0
2 *14981:Y 9.0986e-05
3 *52:8 9.0986e-05
4 *52:8 *222:92 0.000199701
*RES
1 *14981:Y *52:8 40.61 
2 *52:8 *15009:RESET_B 15 
*END

*D_NET *53 0.000845787
*CONN
*I *15010:RESET_B I *D sky130_fd_sc_hd__dfrtp_4
*I *14982:Y O *D sky130_fd_sc_hd__inv_2
*CAP
1 *15010:RESET_B 0.000137664
2 *14982:Y 0.000145909
3 *53:10 0.000283573
4 *15010:RESET_B *15010:D 5.3304e-05
5 *53:10 *14937:A 5.50106e-05
6 *53:10 *77:10 8.4047e-05
7 *53:10 *204:8 8.62783e-05
8 *53:10 *259:8 0
*RES
1 *14982:Y *53:10 41.0036 
2 *53:10 *15010:RESET_B 17.1439 
*END

*D_NET *54 0.000664964
*CONN
*I *15011:RESET_B I *D sky130_fd_sc_hd__dfrtp_2
*I *14983:Y O *D sky130_fd_sc_hd__inv_2
*CAP
1 *15011:RESET_B 9.01484e-05
2 *14983:Y 8.63469e-05
3 *54:8 0.000176495
4 *15011:RESET_B *222:111 2.52027e-05
5 *15011:RESET_B *257:6 6.17437e-06
6 *54:8 *180:36 0
7 *54:8 *205:42 0.000194318
8 *54:8 *222:111 8.62783e-05
*RES
1 *14983:Y *54:8 40.61 
2 *54:8 *15011:RESET_B 16.5018 
*END

*D_NET *55 0.000819757
*CONN
*I *15012:RESET_B I *D sky130_fd_sc_hd__dfrtp_4
*I *14984:Y O *D sky130_fd_sc_hd__inv_2
*CAP
1 *15012:RESET_B 0.00036258
2 *14984:Y 0.00036258
3 *15012:RESET_B *14984:A 6.17437e-06
4 *15012:RESET_B *15012:CLK 3.34129e-05
5 *15012:RESET_B *15012:D 5.50106e-05
*RES
1 *14984:Y *15012:RESET_B 28.4789 
*END

*D_NET *56 0.001034
*CONN
*I *15013:RESET_B I *D sky130_fd_sc_hd__dfrtp_4
*I *14985:Y O *D sky130_fd_sc_hd__inv_2
*CAP
1 *15013:RESET_B 0
2 *14985:Y 0.000475247
3 *56:10 0.000475247
4 *56:10 *15014:CLK 3.71251e-05
5 *56:10 *57:8 0
6 *56:10 *80:10 0
7 *56:10 *238:16 0
8 *56:10 *250:39 4.63849e-05
9 *56:10 *267:55 0
*RES
1 *14985:Y *56:10 45.9543 
2 *56:10 *15013:RESET_B 15 
*END

*D_NET *57 0.000240566
*CONN
*I *15014:RESET_B I *D sky130_fd_sc_hd__dfrtp_4
*I *14986:Y O *D sky130_fd_sc_hd__inv_2
*CAP
1 *15014:RESET_B 0
2 *14986:Y 6.21258e-05
3 *57:8 6.21258e-05
4 *57:8 *267:55 0.000116314
5 *56:10 *57:8 0
*RES
1 *14986:Y *57:8 39.5536 
2 *57:8 *15014:RESET_B 15 
*END

*D_NET *58 0.000392946
*CONN
*I *15015:RESET_B I *D sky130_fd_sc_hd__dfrtp_4
*I *14987:Y O *D sky130_fd_sc_hd__inv_2
*CAP
1 *15015:RESET_B 0
2 *14987:Y 0.000121652
3 *58:10 0.000121652
4 *58:10 *14987:A 2.93845e-05
5 *58:10 *222:12 0.000114083
6 *58:10 *222:22 6.17437e-06
*RES
1 *14987:Y *58:10 40.175 
2 *58:10 *15015:RESET_B 15 
*END

*D_NET *59 0.000377991
*CONN
*I *15016:RESET_B I *D sky130_fd_sc_hd__dfrtp_4
*I *14988:Y O *D sky130_fd_sc_hd__inv_2
*CAP
1 *15016:RESET_B 0
2 *14988:Y 0.000133539
3 *59:10 0.000133539
4 *59:10 *222:48 0.000110913
*RES
1 *14988:Y *59:10 40.175 
2 *59:10 *15016:RESET_B 15 
*END

*D_NET *60 0.000468977
*CONN
*I *15017:RESET_B I *D sky130_fd_sc_hd__dfrtp_4
*I *14989:Y O *D sky130_fd_sc_hd__inv_2
*CAP
1 *15017:RESET_B 0
2 *14989:Y 0.000162764
3 *60:10 0.000162764
4 *60:10 *220:111 0.000143449
5 *60:10 *241:12 0
*RES
1 *14989:Y *60:10 40.6514 
2 *60:10 *15017:RESET_B 15 
*END

*D_NET *61 0.000371189
*CONN
*I *15018:RESET_B I *D sky130_fd_sc_hd__dfrtp_4
*I *14990:Y O *D sky130_fd_sc_hd__inv_2
*CAP
1 *15018:RESET_B 0
2 *14990:Y 0.000126367
3 *61:10 0.000126367
4 *61:10 *14990:A 7.53384e-06
5 *61:10 *220:111 0.000110922
*RES
1 *14990:Y *61:10 40.175 
2 *61:10 *15018:RESET_B 15 
*END

*D_NET *62 0.000328546
*CONN
*I *15019:RESET_B I *D sky130_fd_sc_hd__dfrtp_4
*I *14991:Y O *D sky130_fd_sc_hd__inv_2
*CAP
1 *15019:RESET_B 0
2 *14991:Y 0.00013445
3 *62:10 0.00013445
4 *62:10 *14991:A 7.53384e-06
5 *62:10 *220:94 5.21127e-05
*RES
1 *14991:Y *62:10 40.175 
2 *62:10 *15019:RESET_B 15 
*END

*D_NET *63 0.000367026
*CONN
*I *15020:RESET_B I *D sky130_fd_sc_hd__dfrtp_4
*I *14992:Y O *D sky130_fd_sc_hd__inv_2
*CAP
1 *15020:RESET_B 0
2 *14992:Y 0.000183513
3 *63:12 0.000183513
4 *63:12 *87:10 0
5 *63:12 *239:135 0
*RES
1 *14992:Y *63:12 40.6721 
2 *63:12 *15020:RESET_B 15 
*END

*D_NET *64 0.000403784
*CONN
*I *15021:RESET_B I *D sky130_fd_sc_hd__dfrtp_4
*I *14993:Y O *D sky130_fd_sc_hd__inv_2
*CAP
1 *15021:RESET_B 0
2 *14993:Y 0.000117794
3 *64:10 0.000117794
4 *64:10 *220:64 0.000112396
5 *64:10 *245:14 5.58003e-05
*RES
1 *14993:Y *64:10 40.175 
2 *64:10 *15021:RESET_B 15 
*END

*D_NET *65 0.00615539
*CONN
*I *15022:RESET_B I *D sky130_fd_sc_hd__dfrtp_4
*I *14994:Y O *D sky130_fd_sc_hd__inv_2
*CAP
1 *15022:RESET_B 0.0013689
2 *14994:Y 0.000299844
3 *65:8 0.00166875
4 *15022:RESET_B *14873:A1 5.3304e-05
5 *15022:RESET_B *14873:B1 0.000742789
6 *15022:RESET_B *14921:B_N 0.0002263
7 *15022:RESET_B *92:8 7.50265e-05
8 *15022:RESET_B *129:22 0.000428025
9 *15022:RESET_B *147:67 0.000742789
10 *15022:RESET_B *193:12 2.93747e-05
11 *15022:RESET_B *246:12 0.000209554
12 *15022:RESET_B *246:14 4.83893e-05
13 *15022:RESET_B *255:46 9.49239e-05
14 *65:8 *157:24 0.000167421
*RES
1 *14994:Y *65:8 28.9968 
2 *65:8 *15022:RESET_B 32.2314 
*END

*D_NET *66 0.000541852
*CONN
*I *15023:RESET_B I *D sky130_fd_sc_hd__dfrtp_4
*I *14995:Y O *D sky130_fd_sc_hd__inv_2
*CAP
1 *15023:RESET_B 0
2 *14995:Y 0.000186089
3 *66:10 0.000186089
4 *66:10 *220:47 0.000169674
*RES
1 *14995:Y *66:10 41.3557 
2 *66:10 *15023:RESET_B 15 
*END

*D_NET *67 0.000321047
*CONN
*I *15024:RESET_B I *D sky130_fd_sc_hd__dfrtp_4
*I *14996:Y O *D sky130_fd_sc_hd__inv_2
*CAP
1 *15024:RESET_B 6.3673e-05
2 *14996:Y 9.68504e-05
3 *67:8 0.000160523
4 *67:8 *222:12 0
5 *67:8 *248:25 0
6 *67:8 *252:20 0
*RES
1 *14996:Y *67:8 39.5536 
2 *67:8 *15024:RESET_B 16.0254 
*END

*D_NET *68 0.00100207
*CONN
*I *15001:D I *D sky130_fd_sc_hd__dfrtp_4
*I *14955:X O *D sky130_fd_sc_hd__clkbuf_1
*CAP
1 *15001:D 0
2 *14955:X 0.000466194
3 *68:10 0.000466194
4 *68:10 *15019:CLK 2.64616e-05
5 *68:10 *86:6 3.80755e-05
6 *68:10 *221:10 0
7 *68:10 *221:14 0
8 *68:10 *243:12 5.14746e-06
*RES
1 *14955:X *68:10 44.8979 
2 *68:10 *15001:D 38 
*END

*D_NET *69 0.000782122
*CONN
*I *15002:D I *D sky130_fd_sc_hd__dfrtp_4
*I *14953:X O *D sky130_fd_sc_hd__clkbuf_1
*CAP
1 *15002:D 0.000212959
2 *14953:X 6.55146e-05
3 *69:8 0.000278474
4 *15002:D *239:118 0.00018431
5 *69:8 *212:10 4.08641e-05
*RES
1 *14953:X *69:8 39.2014 
2 *69:8 *15002:D 41.5473 
*END

*D_NET *70 0.000844295
*CONN
*I *15003:D I *D sky130_fd_sc_hd__dfrtp_4
*I *14951:X O *D sky130_fd_sc_hd__clkbuf_1
*CAP
1 *15003:D 0
2 *14951:X 0.00023691
3 *70:14 0.00023691
4 *70:14 *14951:A 0
5 *70:14 *14974:A 0.000139357
6 *70:14 *221:87 0.000116314
7 *70:14 *233:35 5.80963e-05
8 *46:10 *70:14 5.67058e-05
*RES
1 *14951:X *70:14 43.5514 
2 *70:14 *15003:D 38 
*END

*D_NET *71 0.000876118
*CONN
*I *15004:D I *D sky130_fd_sc_hd__dfrtp_4
*I *14949:X O *D sky130_fd_sc_hd__clkbuf_1
*CAP
1 *15004:D 0
2 *14949:X 0.000304976
3 *71:10 0.000304976
4 *71:10 *15004:CLK 6.63801e-05
5 *71:10 *221:51 0.000143655
6 *71:10 *239:99 5.61311e-05
*RES
1 *14949:X *71:10 44.2971 
2 *71:10 *15004:D 38 
*END

*D_NET *72 0.000832749
*CONN
*I *15005:D I *D sky130_fd_sc_hd__dfrtp_2
*I *14947:X O *D sky130_fd_sc_hd__o21a_1
*CAP
1 *15005:D 0
2 *14947:X 0.000122125
3 *72:6 0.000122125
4 *72:6 *14811:A 0.000396689
5 *72:6 *14947:A2 5.50106e-05
6 *72:6 *14947:B1 5.50049e-05
7 *72:6 *15005:CLK 8.1796e-05
*RES
1 *14947:X *72:6 27.4329 
2 *72:6 *15005:D 23 
*END

*D_NET *73 0.000859169
*CONN
*I *15006:D I *D sky130_fd_sc_hd__dfrtp_4
*I *14945:X O *D sky130_fd_sc_hd__clkbuf_1
*CAP
1 *15006:D 0
2 *14945:X 0.000429584
3 *73:10 0.000429584
4 *73:10 *222:92 0
*RES
1 *14945:X *73:10 43.8621 
2 *73:10 *15006:D 38 
*END

*D_NET *74 0.00033653
*CONN
*I *15007:D I *D sky130_fd_sc_hd__dfrtp_4
*I *14943:X O *D sky130_fd_sc_hd__o21a_1
*CAP
1 *15007:D 6.2347e-05
2 *14943:X 7.99533e-05
3 *74:8 0.0001423
4 *15007:D *238:64 5.19297e-05
5 *74:8 *238:64 0
*RES
1 *14943:X *74:8 39.2014 
2 *74:8 *15007:D 38.9995 
*END

*D_NET *75 0.000388563
*CONN
*I *15008:D I *D sky130_fd_sc_hd__dfrtp_4
*I *14941:X O *D sky130_fd_sc_hd__o41a_1
*CAP
1 *15008:D 0.000113532
2 *14941:X 0.000113532
3 *15008:D *233:70 0.000135037
4 *15008:D *238:112 2.64616e-05
*RES
1 *14941:X *15008:D 48.0507 
*END

*D_NET *76 0.000612602
*CONN
*I *15009:D I *D sky130_fd_sc_hd__dfrtp_4
*I *14938:X O *D sky130_fd_sc_hd__a31o_1
*CAP
1 *15009:D 0
2 *14938:X 0.000165398
3 *76:10 0.000165398
4 *76:10 *231:31 7.03766e-05
5 *76:10 *233:35 7.03766e-05
6 *76:10 *255:25 0.000141052
*RES
1 *14938:X *76:10 41.48 
2 *76:10 *15009:D 38 
*END

*D_NET *77 0.000869218
*CONN
*I *15010:D I *D sky130_fd_sc_hd__dfrtp_4
*I *14937:X O *D sky130_fd_sc_hd__clkbuf_1
*CAP
1 *15010:D 0.000102569
2 *14937:X 0.000185913
3 *77:10 0.000288482
4 *77:10 *14937:A 0.000143655
5 *77:10 *204:8 1.12487e-05
6 *77:10 *259:8 0
7 *15010:RESET_B *15010:D 5.3304e-05
8 *53:10 *77:10 8.4047e-05
*RES
1 *14937:X *77:10 41.1279 
2 *77:10 *15010:D 39.5743 
*END

*D_NET *78 0.00104824
*CONN
*I *15011:D I *D sky130_fd_sc_hd__dfrtp_2
*I *14935:X O *D sky130_fd_sc_hd__a21o_1
*CAP
1 *15011:D 0
2 *14935:X 0.000420088
3 *78:10 0.000420088
4 *78:10 *221:87 6.93449e-05
5 *78:10 *233:35 0.000138718
*RES
1 *14935:X *78:10 44.3386 
2 *78:10 *15011:D 38 
*END

*D_NET *79 0.000641171
*CONN
*I *15012:D I *D sky130_fd_sc_hd__dfrtp_4
*I *14934:X O *D sky130_fd_sc_hd__clkbuf_1
*CAP
1 *15012:D 2.24548e-05
2 *14934:X 0.000270626
3 *79:10 0.00029308
4 *79:10 *203:8 0
5 *15012:RESET_B *15012:D 5.50106e-05
*RES
1 *14934:X *79:10 41.6043 
2 *79:10 *15012:D 38.6214 
*END

*D_NET *80 0.00120881
*CONN
*I *15013:D I *D sky130_fd_sc_hd__dfrtp_4
*I *14932:X O *D sky130_fd_sc_hd__a2bb2o_1
*CAP
1 *15013:D 0
2 *14932:X 0.000363335
3 *80:10 0.000363335
4 *80:10 *197:16 5.50106e-05
5 *80:10 *222:36 0.000194318
6 *80:10 *238:12 4.83941e-05
7 *80:10 *238:16 7.03214e-05
8 *80:10 *250:39 0.000114092
9 *56:10 *80:10 0
*RES
1 *14932:X *80:10 46.1614 
2 *80:10 *15013:D 38 
*END

*D_NET *81 0.000356713
*CONN
*I *15014:D I *D sky130_fd_sc_hd__dfrtp_4
*I *14926:X O *D sky130_fd_sc_hd__a2bb2o_1
*CAP
1 *15014:D 7.18361e-05
2 *14926:X 7.63852e-05
3 *81:8 0.000148221
4 *15014:D *250:39 6.02707e-05
5 *81:8 *250:39 0
6 *81:8 *267:55 0
*RES
1 *14926:X *81:8 39.2014 
2 *81:8 *15014:D 39.16 
*END

*D_NET *82 0.00101605
*CONN
*I *15015:D I *D sky130_fd_sc_hd__dfrtp_4
*I *14916:X O *D sky130_fd_sc_hd__o31a_1
*CAP
1 *15015:D 0.000213102
2 *14916:X 0.000176184
3 *82:8 0.000389286
4 *15015:D *222:28 6.18929e-05
5 *82:8 *14915:B 6.68793e-05
6 *82:8 *149:10 4.08641e-05
7 *82:8 *238:36 4.58924e-05
8 *82:8 *238:51 2.19539e-05
*RES
1 *14916:X *82:8 42.0186 
2 *82:8 *15015:D 40.9052 
*END

*D_NET *83 0.0017133
*CONN
*I *15016:D I *D sky130_fd_sc_hd__dfrtp_4
*I *14913:Y O *D sky130_fd_sc_hd__o41ai_1
*CAP
1 *15016:D 0.000227386
2 *14913:Y 0.000184897
3 *83:8 0.000412283
4 *15016:D *238:120 0.000491451
5 *15016:D *253:27 0.000230604
6 *83:8 *253:27 0
7 *83:8 *267:55 0.000166676
*RES
1 *14913:Y *83:8 42.3707 
2 *83:8 *15016:D 44.815 
*END

*D_NET *84 0.00126644
*CONN
*I *15017:D I *D sky130_fd_sc_hd__dfrtp_4
*I *14900:Y O *D sky130_fd_sc_hd__a21oi_1
*CAP
1 *15017:D 0.000115774
2 *14900:Y 0.000280085
3 *84:10 0.000395859
4 *15017:D *15017:CLK 5.50106e-05
5 *84:10 *221:10 0.000194318
6 *84:10 *242:16 0.000225393
*RES
1 *14900:Y *84:10 43.1371 
2 *84:10 *15017:D 40.0507 
*END

*D_NET *85 0.00179103
*CONN
*I *15018:D I *D sky130_fd_sc_hd__dfrtp_4
*I *14899:X O *D sky130_fd_sc_hd__a21o_1
*CAP
1 *15018:D 0
2 *14899:X 0.00087945
3 *85:10 0.00087945
4 *85:10 *221:10 3.21327e-05
*RES
1 *14899:X *85:10 49.2271 
2 *85:10 *15018:D 38 
*END

*D_NET *86 0.00113491
*CONN
*I *15019:D I *D sky130_fd_sc_hd__dfrtp_4
*I *14891:X O *D sky130_fd_sc_hd__a21bo_1
*CAP
1 *15019:D 0
2 *14891:X 0.000202359
3 *86:6 0.000202359
4 *86:6 *15019:CLK 2.93747e-05
5 *86:6 *243:12 0.000662746
6 *68:10 *86:6 3.80755e-05
*RES
1 *14891:X *86:6 30.2914 
2 *86:6 *15019:D 23 
*END

*D_NET *87 0.00112109
*CONN
*I *15020:D I *D sky130_fd_sc_hd__dfrtp_4
*I *14885:X O *D sky130_fd_sc_hd__clkbuf_1
*CAP
1 *15020:D 0
2 *14885:X 0.000560547
3 *87:10 0.000560547
4 *87:10 *14884:S 0
5 *63:12 *87:10 0
*RES
1 *14885:X *87:10 44.9393 
2 *87:10 *15020:D 38 
*END

*D_NET *88 0.00124107
*CONN
*I *15021:D I *D sky130_fd_sc_hd__dfrtp_4
*I *14880:X O *D sky130_fd_sc_hd__clkbuf_1
*CAP
1 *15021:D 0.000128527
2 *14880:X 0.000191427
3 *88:8 0.000319954
4 *15021:D *255:60 0.000320094
5 *88:8 *221:14 0.000170807
6 *48:10 *88:8 0.000110267
*RES
1 *14880:X *88:8 42.3707 
2 *88:8 *15021:D 41.48 
*END

*D_NET *89 0.00125971
*CONN
*I *15022:D I *D sky130_fd_sc_hd__dfrtp_4
*I *14877:X O *D sky130_fd_sc_hd__a21o_1
*CAP
1 *15022:D 0.000233191
2 *14877:X 0.000206244
3 *89:10 0.000439435
4 *15022:D *246:14 2.95136e-05
5 *89:10 *155:34 5.12328e-05
6 *89:10 *178:18 0.000222113
7 *89:10 *234:12 6.78359e-05
8 *89:10 *255:38 1.01436e-05
*RES
1 *14877:X *89:10 42.5364 
2 *89:10 *15022:D 41.0709 
*END

*D_NET *90 0.00107363
*CONN
*I *15023:D I *D sky130_fd_sc_hd__dfrtp_4
*I *14871:X O *D sky130_fd_sc_hd__a21o_1
*CAP
1 *15023:D 0
2 *14871:X 0.000228478
3 *90:6 0.000228478
4 *90:6 *247:8 0.000616669
*RES
1 *14871:X *90:6 29.815 
2 *90:6 *15023:D 23 
*END

*D_NET *91 0.00100883
*CONN
*I *15024:D I *D sky130_fd_sc_hd__dfrtp_4
*I *14868:X O *D sky130_fd_sc_hd__clkbuf_1
*CAP
1 *15024:D 2.24548e-05
2 *14868:X 0.000436631
3 *91:10 0.000459085
4 *15024:D *252:20 5.50106e-05
5 *91:10 *188:8 3.56537e-05
6 *91:10 *222:12 0
7 *91:10 *238:51 0
*RES
1 *14868:X *91:10 44.8979 
2 *91:10 *15024:D 38.6214 
*END

*D_NET *92 0.00234471
*CONN
*I *14815:A I *D sky130_fd_sc_hd__nand2_1
*I *14847:C1 I *D sky130_fd_sc_hd__o211a_1
*I *14874:A I *D sky130_fd_sc_hd__nor2_1
*I *14810:X O *D sky130_fd_sc_hd__xor2_1
*CAP
1 *14815:A 8.58909e-05
2 *14847:C1 0
3 *14874:A 0.00013562
4 *14810:X 0.000179328
5 *92:21 0.000212946
6 *92:8 0.000442003
7 *14815:A *14815:B 5.3304e-05
8 *14815:A *14822:A 3.91386e-05
9 *14815:A *14876:A1 2.43944e-05
10 *14815:A *255:52 0.000136743
11 *14874:A *98:10 0
12 *14874:A *129:39 0
13 *14874:A *152:18 0.000191148
14 *92:8 *14873:A1 6.17437e-06
15 *92:8 *14921:A 5.50106e-05
16 *92:8 *14921:B_N 3.22879e-05
17 *92:8 *103:33 0.000135037
18 *92:8 *193:12 5.50049e-05
19 *92:8 *236:42 5.50049e-05
20 *92:21 *103:14 2.77955e-05
21 *92:21 *103:18 0.000160191
22 *92:21 *129:39 0
23 *92:21 *152:10 0.000187986
24 *92:21 *152:18 5.46706e-05
25 *15022:RESET_B *92:8 7.50265e-05
*RES
1 *14810:X *92:8 41.9564 
2 *92:8 *14874:A 40.61 
3 *92:8 *92:21 18.3143 
4 *92:21 *14847:C1 23 
5 *92:21 *14815:A 25.5686 
*END

*D_NET *93 0.00315246
*CONN
*I *14843:A2 I *D sky130_fd_sc_hd__o211a_1
*I *14844:B1 I *D sky130_fd_sc_hd__a211o_1
*I *14812:B1 I *D sky130_fd_sc_hd__a21oi_1
*I *14905:A I *D sky130_fd_sc_hd__or2_1
*I *14811:X O *D sky130_fd_sc_hd__and3_1
*CAP
1 *14843:A2 1.69716e-05
2 *14844:B1 2.67959e-05
3 *14812:B1 7.18269e-05
4 *14905:A 0
5 *14811:X 0.000116126
6 *93:35 0.00038471
7 *93:23 0.000508421
8 *93:8 0.000321488
9 *14812:B1 *14812:A1 0.000186032
10 *14812:B1 *14844:A2 9.66668e-05
11 *14812:B1 *96:16 2.19667e-05
12 *14812:B1 *229:57 5.5792e-05
13 *14843:A2 *14843:B1 1.12796e-05
14 *14844:B1 *14844:A1 5.12055e-06
15 *14844:B1 *14844:C1 1.09903e-05
16 *14844:B1 *96:16 1.33928e-05
17 *93:8 *14879:A 0.000301536
18 *93:8 *95:10 1.0092e-05
19 *93:8 *224:54 6.40406e-05
20 *93:8 *231:135 4.7869e-05
21 *93:23 *95:10 0.000230803
22 *93:23 *161:12 2.64616e-05
23 *93:23 *183:20 3.28357e-06
24 *93:23 *224:54 3.71192e-05
25 *93:23 *224:125 5.1823e-05
26 *93:23 *224:134 2.46399e-05
27 *93:23 *245:14 6.17437e-06
28 *93:23 *245:18 2.02872e-05
29 *93:35 *14813:A 1.57386e-05
30 *93:35 *14843:A1 0.000186041
31 *93:35 *14844:A1 1.74874e-06
32 *93:35 *14844:C1 4.91172e-06
33 *93:35 *14905:B 2.05503e-05
34 *93:35 *96:16 2.75275e-06
35 *93:35 *125:8 6.18619e-05
36 *93:35 *161:12 0.000121803
37 *93:35 *231:127 1.79317e-05
38 *93:35 *245:18 2.193e-05
39 *93:35 *245:20 2.54821e-05
*RES
1 *14811:X *93:8 42.0186 
2 *93:8 *14905:A 38 
3 *93:8 *93:23 19.4329 
4 *93:23 *93:35 36.38 
5 *93:35 *14812:B1 25.5271 
6 *93:35 *14844:B1 24.3412 
7 *93:23 *14843:A2 23.4971 
*END

*D_NET *94 0.00126123
*CONN
*I *14814:A I *D sky130_fd_sc_hd__nor2_1
*I *14812:Y O *D sky130_fd_sc_hd__a21oi_1
*CAP
1 *14814:A 6.72821e-05
2 *14812:Y 0.000250895
3 *94:14 0.000318177
4 *14814:A *14844:C1 2.5257e-05
5 *14814:A *14905:B 1.14667e-05
6 *14814:A *125:33 3.06888e-05
7 *94:14 *14844:A1 7.81709e-06
8 *94:14 *14844:A2 4.08664e-05
9 *94:14 *96:16 0.000134612
10 *94:14 *125:33 0
11 *94:14 *224:16 7.21896e-05
12 *94:14 *224:44 0.000176125
13 *94:14 *229:57 9.12489e-05
14 *94:14 *229:61 3.46013e-05
*RES
1 *14812:Y *94:14 48.6344 
2 *94:14 *14814:A 47.2118 
*END

*D_NET *95 0.003696
*CONN
*I *14814:B I *D sky130_fd_sc_hd__nor2_1
*I *14844:C1 I *D sky130_fd_sc_hd__a211o_1
*I *14879:A I *D sky130_fd_sc_hd__or2_1
*I *14813:X O *D sky130_fd_sc_hd__and2_1
*CAP
1 *14814:B 0
2 *14844:C1 8.71608e-05
3 *14879:A 0.000529413
4 *14813:X 0.000368073
5 *95:27 0.000141969
6 *95:10 0.000952293
7 *14844:C1 *14844:A1 2.0936e-07
8 *14844:C1 *14905:B 1.78464e-05
9 *14844:C1 *96:16 7.48414e-05
10 *14879:A *157:24 0.000437786
11 *14879:A *220:51 4.21281e-05
12 *14879:A *231:127 2.19786e-05
13 *14879:A *231:135 2.1199e-05
14 *14879:A *255:52 0.000166774
15 *95:10 *224:134 2.36418e-05
16 *95:10 *231:127 0.000144243
17 *95:27 *14905:B 2.95526e-05
18 *95:27 *255:58 5.3304e-05
19 *14814:A *14844:C1 2.5257e-05
20 *14844:B1 *14844:C1 1.09903e-05
21 *93:8 *14879:A 0.000301536
22 *93:8 *95:10 1.0092e-05
23 *93:23 *95:10 0.000230803
24 *93:35 *14844:C1 4.91172e-06
*RES
1 *14813:X *95:10 44.2971 
2 *95:10 *14879:A 48.4814 
3 *95:10 *95:27 16.0979 
4 *95:27 *14844:C1 25.5686 
5 *95:27 *14814:B 23 
*END

*D_NET *96 0.00656425
*CONN
*I *14815:B I *D sky130_fd_sc_hd__nand2_1
*I *14874:B I *D sky130_fd_sc_hd__nor2_1
*I *14814:Y O *D sky130_fd_sc_hd__nor2_1
*CAP
1 *14815:B 2.77218e-05
2 *14874:B 0.000188328
3 *14814:Y 0.00127515
4 *96:22 0.000599378
5 *96:16 0.00165848
6 *14815:B *14876:A1 2.64616e-05
7 *14874:B *103:33 0.000163352
8 *14874:B *152:10 0.000176541
9 *14874:B *152:18 0.000239496
10 *14874:B *154:10 3.46954e-05
11 *14874:B *193:12 0.000190218
12 *96:16 *14844:A2 1.61385e-05
13 *96:16 *14922:A2 0.000145171
14 *96:16 *14922:C1 7.79323e-05
15 *96:16 *126:8 0.000373122
16 *96:16 *128:23 2.20564e-05
17 *96:16 *191:14 4.35038e-05
18 *96:16 *229:50 4.3535e-05
19 *96:16 *229:57 5.51891e-05
20 *96:22 *14878:C1 5.5792e-05
21 *96:22 *128:23 9.3495e-05
22 *96:22 *147:61 0.000228233
23 *96:22 *152:10 0.000268153
24 *96:22 *193:12 0.00026123
25 *14812:B1 *96:16 2.19667e-05
26 *14815:A *14815:B 5.3304e-05
27 *14844:B1 *96:16 1.33928e-05
28 *14844:C1 *96:16 7.48414e-05
29 *93:35 *96:16 2.75275e-06
30 *94:14 *96:16 0.000134612
*RES
1 *14814:Y *96:16 45.04 
2 *96:16 *96:22 24.0521 
3 *96:22 *14874:B 43.7793 
4 *96:22 *14815:B 38.6214 
*END

*D_NET *97 0.00455245
*CONN
*I *14877:A1 I *D sky130_fd_sc_hd__a21o_1
*I *14816:B1 I *D sky130_fd_sc_hd__o21ai_2
*I *14904:A1 I *D sky130_fd_sc_hd__a211o_1
*I *14815:Y O *D sky130_fd_sc_hd__nand2_1
*CAP
1 *14877:A1 0.000253553
2 *14816:B1 0.000459357
3 *14904:A1 8.62504e-05
4 *14815:Y 0.000448358
5 *97:14 0.000725395
6 *97:12 0.000881699
7 *14816:B1 *14816:A1 8.43466e-05
8 *14816:B1 *98:8 1.94693e-05
9 *14816:B1 *156:19 1.02387e-05
10 *14816:B1 *177:12 6.7177e-06
11 *14816:B1 *178:35 3.70071e-06
12 *14816:B1 *229:20 0
13 *14816:B1 *235:23 9.84851e-05
14 *14816:B1 *235:35 3.9779e-05
15 *14877:A1 *236:52 0.000354122
16 *14904:A1 *14904:B1 7.52566e-05
17 *14904:A1 *156:19 1.27321e-05
18 *14904:A1 *235:23 3.22879e-05
19 *97:12 *155:34 2.02872e-05
20 *97:12 *156:19 1.34354e-05
21 *97:12 *229:14 0
22 *97:12 *255:46 0.000110922
23 *97:12 *255:52 0.00043937
24 *97:14 *156:19 7.58577e-05
25 *97:14 *235:35 5.13411e-05
26 *97:14 *246:8 2.96051e-05
27 *97:14 *255:46 0.000219882
*RES
1 *14815:Y *97:12 45.4364 
2 *97:12 *97:14 4.54679 
3 *97:14 *14904:A1 40.0611 
4 *97:14 *14816:B1 44.7839 
5 *97:12 *14877:A1 41.9564 
*END

*D_NET *98 0.0040158
*CONN
*I *14854:A1 I *D sky130_fd_sc_hd__o21ai_2
*I *14869:B I *D sky130_fd_sc_hd__or3_1
*I *14917:A2 I *D sky130_fd_sc_hd__a21boi_1
*I *14816:Y O *D sky130_fd_sc_hd__o21ai_2
*CAP
1 *14854:A1 0
2 *14869:B 0.000338034
3 *14917:A2 0.000244416
4 *14816:Y 0.000235371
5 *98:25 0.000487725
6 *98:10 0.000760208
7 *98:8 0.000601473
8 *14869:B *14869:A 4.6898e-05
9 *14869:B *14870:B 0.00035673
10 *14917:A2 *14917:A1 0.000227497
11 *14917:A2 *135:23 0.000157309
12 *14917:A2 *152:18 0
13 *14917:A2 *177:25 0
14 *98:8 *154:10 4.9662e-05
15 *98:10 *129:39 0.000296732
16 *98:10 *135:23 1.14452e-05
17 *98:10 *152:18 0
18 *98:10 *177:25 0
19 *98:25 *14869:A 8.43466e-05
20 *98:25 *135:23 9.84851e-05
21 *14816:B1 *98:8 1.94693e-05
22 *14874:A *98:10 0
*RES
1 *14816:Y *98:8 41.9564 
2 *98:8 *98:10 8.59643 
3 *98:10 *14917:A2 43.7793 
4 *98:10 *98:25 18.0243 
5 *98:25 *14869:B 28.7586 
6 *98:25 *14854:A1 23 
*END

*D_NET *99 0.00334283
*CONN
*I *14839:A2 I *D sky130_fd_sc_hd__o31a_1
*I *14821:A1 I *D sky130_fd_sc_hd__o21bai_2
*I *14840:B I *D sky130_fd_sc_hd__or3_1
*I *14817:X O *D sky130_fd_sc_hd__o31a_1
*CAP
1 *14839:A2 0
2 *14821:A1 6.98581e-05
3 *14840:B 0
4 *14817:X 0.000470502
5 *99:22 0.000129214
6 *99:16 0.000263481
7 *99:12 9.14861e-05
8 *99:8 0.00049758
9 *14821:A1 *14821:A2 2.02517e-05
10 *14821:A1 *14821:B1_N 2.4754e-05
11 *14821:A1 *14839:A1 8.17328e-05
12 *14821:A1 *14839:A3 6.99589e-05
13 *14821:A1 *14839:B1 0
14 *99:8 *102:12 0
15 *99:8 *228:8 8.85189e-05
16 *99:8 *229:12 0.000222123
17 *99:8 *229:14 0.000326964
18 *99:8 *231:16 0
19 *99:8 *239:8 0
20 *99:12 *14839:A3 0.000329089
21 *99:12 *14839:B1 1.22822e-05
22 *99:16 *14839:A1 5.3304e-05
23 *99:16 *14839:A3 4.21281e-05
24 *99:16 *14839:B1 2.32004e-05
25 *99:22 *14840:A 0.00014411
26 *99:22 *102:12 8.62783e-05
27 *99:22 *229:14 0
28 *99:22 *237:12 0.000296017
*RES
1 *14817:X *99:8 48.005 
2 *99:8 *99:12 17.0507 
3 *99:12 *99:16 1.595 
4 *99:16 *99:22 34.0186 
5 *99:22 *14840:B 23 
6 *99:16 *14821:A1 25.0714 
7 *99:12 *14839:A2 23 
*END

*D_NET *100 0.00585463
*CONN
*I *14839:A3 I *D sky130_fd_sc_hd__o31a_1
*I *14821:A2 I *D sky130_fd_sc_hd__o21bai_2
*I *14883:B1 I *D sky130_fd_sc_hd__a311o_2
*I *14840:C I *D sky130_fd_sc_hd__or3_1
*I *14818:X O *D sky130_fd_sc_hd__and3_1
*CAP
1 *14839:A3 0.000544683
2 *14821:A2 1.39224e-05
3 *14883:B1 0
4 *14840:C 0.000158256
5 *14818:X 0
6 *100:38 0.000618703
7 *100:29 0.000141574
8 *100:16 0.00053684
9 *100:8 0.00111364
10 *100:6 0.00081653
11 *14821:A2 *14821:B1_N 1.14154e-05
12 *14839:A3 *14821:B1_N 2.25419e-05
13 *14839:A3 *14839:B1 3.22879e-05
14 *14840:C *14840:A 5.3304e-05
15 *14840:C *122:10 2.93747e-05
16 *100:8 *14839:A1 0
17 *100:8 *101:24 1.7992e-05
18 *100:8 *109:10 5.93813e-05
19 *100:8 *161:19 0.000709307
20 *100:8 *223:12 0
21 *100:8 *231:16 0
22 *100:8 *244:34 0
23 *100:8 *266:8 0
24 *100:16 *14881:B1 0.00010018
25 *100:16 *121:10 0
26 *100:16 *122:10 1.56762e-05
27 *100:16 *161:19 7.81176e-05
28 *100:29 *14881:A1 0
29 *100:29 *121:10 0.000117862
30 *100:29 *159:8 7.8377e-05
31 *100:38 *14821:B1_N 0.000123233
32 *14821:A1 *14821:A2 2.02517e-05
33 *14821:A1 *14839:A3 6.99589e-05
34 *99:12 *14839:A3 0.000329089
35 *99:16 *14839:A3 4.21281e-05
*RES
1 *14818:X *100:6 38 
2 *100:6 *100:8 18.8086 
3 *100:8 *100:16 19.6814 
4 *100:16 *14840:C 25.5271 
5 *100:16 *100:29 33.3143 
6 *100:29 *14883:B1 23 
7 *100:8 *100:38 16.5743 
8 *100:38 *14821:A2 23.4971 
9 *100:38 *14839:A3 32.6114 
*END

*D_NET *101 0.00246266
*CONN
*I *15035:A I *D sky130_fd_sc_hd__buf_1
*I *15037:A I *D sky130_fd_sc_hd__clkbuf_2
*I *14819:Y O *D sky130_fd_sc_hd__nor4_1
*CAP
1 *15035:A 0
2 *15037:A 0
3 *14819:Y 0.000391692
4 *101:24 0.000138278
5 *101:16 0.000259809
6 *101:10 0.000513223
7 *101:10 *14827:B1 2.93747e-05
8 *101:16 *223:12 0.000139352
9 *101:24 *109:10 0.000167624
10 *101:24 *223:12 0.000114776
11 *101:24 *223:16 1.76557e-05
12 *101:24 *231:16 1.4471e-05
13 *14819:A *101:10 1.41077e-05
14 *14819:D *101:10 0.00029519
15 *14830:A1 *101:16 0.000223692
16 *37:75 *101:16 3.91386e-05
17 *39:85 *101:10 8.62876e-05
18 *100:8 *101:24 1.7992e-05
*RES
1 *14819:Y *101:10 44.1107 
2 *101:10 *101:16 18.3764 
3 *101:16 *101:24 33.3557 
4 *101:24 *15037:A 23 
5 *101:16 *15035:A 23 
*END

*D_NET *102 0.00323219
*CONN
*I *14821:B1_N I *D sky130_fd_sc_hd__o21bai_2
*I *14839:B1 I *D sky130_fd_sc_hd__o31a_1
*I *14840:A I *D sky130_fd_sc_hd__or3_1
*I *14820:X O *D sky130_fd_sc_hd__a21o_1
*CAP
1 *14821:B1_N 0.000263968
2 *14839:B1 9.719e-05
3 *14840:A 0.000170474
4 *14820:X 0.000458369
5 *102:29 0.000381216
6 *102:12 0.000648901
7 *14821:B1_N *14839:A1 0.000136743
8 *14821:B1_N *103:8 0.000139357
9 *14821:B1_N *121:10 9.67842e-05
10 *14839:B1 *14839:A1 1.24376e-05
11 *14840:A *229:14 0
12 *102:12 *14839:A1 2.54646e-05
13 *102:12 *229:14 0
14 *102:12 *231:16 5.56306e-05
15 *102:12 *237:12 0.000212248
16 *14821:A1 *14821:B1_N 2.4754e-05
17 *14821:A1 *14839:B1 0
18 *14821:A2 *14821:B1_N 1.14154e-05
19 *14839:A3 *14821:B1_N 2.25419e-05
20 *14839:A3 *14839:B1 3.22879e-05
21 *14840:C *14840:A 5.3304e-05
22 *99:8 *102:12 0
23 *99:12 *14839:B1 1.22822e-05
24 *99:16 *14839:B1 2.32004e-05
25 *99:22 *14840:A 0.00014411
26 *99:22 *102:12 8.62783e-05
27 *100:38 *14821:B1_N 0.000123233
*RES
1 *14820:X *102:12 47.3629 
2 *102:12 *14840:A 41.5007 
3 *102:12 *102:29 15.4971 
4 *102:29 *14839:B1 25.0714 
5 *102:29 *14821:B1_N 29.5043 
*END

*D_NET *103 0.0103818
*CONN
*I *14822:A I *D sky130_fd_sc_hd__inv_2
*I *14918:C1 I *D sky130_fd_sc_hd__o211a_1
*I *14873:A1 I *D sky130_fd_sc_hd__a21o_1
*I *14821:Y O *D sky130_fd_sc_hd__o21bai_2
*CAP
1 *14822:A 0.000131987
2 *14918:C1 1.39194e-05
3 *14873:A1 1.78296e-05
4 *14821:Y 0.000119468
5 *103:33 0.000920589
6 *103:18 0.00103784
7 *103:14 0.00123186
8 *103:8 0.001106
9 *14822:A *14847:A1 0.000140259
10 *14822:A *14847:B1 0.000108934
11 *14822:A *14876:A1 1.41077e-05
12 *14822:A *255:52 0.000306338
13 *14918:C1 *14857:A1 5.67058e-05
14 *14918:C1 *14918:A2 2.93747e-05
15 *103:14 *14847:A2 7.07819e-05
16 *103:14 *14878:B1 1.02387e-05
17 *103:14 *14878:C1 1.76977e-05
18 *103:14 *14919:B1 0
19 *103:14 *119:41 9.191e-05
20 *103:14 *121:37 0.000560426
21 *103:14 *147:42 0.000230439
22 *103:14 *147:93 4.31263e-05
23 *103:14 *152:10 0.00130686
24 *103:14 *161:10 0.000152553
25 *103:14 *161:19 0.000213275
26 *103:18 *14878:B1 9.21347e-06
27 *103:18 *129:22 2.15048e-05
28 *103:18 *153:8 2.01531e-05
29 *103:33 *139:12 0
30 *103:33 *152:18 0.00103779
31 *103:33 *154:10 8.62876e-05
32 *103:33 *193:12 0
33 *103:33 *237:23 0.00055001
34 *14815:A *14822:A 3.91386e-05
35 *14821:B1_N *103:8 0.000139357
36 *14874:B *103:33 0.000163352
37 *15022:RESET_B *14873:A1 5.3304e-05
38 *92:8 *14873:A1 6.17437e-06
39 *92:8 *103:33 0.000135037
40 *92:21 *103:14 2.77955e-05
41 *92:21 *103:18 0.000160191
*RES
1 *14821:Y *103:8 40.0507 
2 *103:8 *103:14 29.0829 
3 *103:14 *103:18 17.2579 
4 *103:18 *14873:A1 23.6214 
5 *103:18 *103:33 39.8779 
6 *103:33 *14918:C1 38.6214 
7 *103:14 *14822:A 42.8264 
*END

*D_NET *104 0.00121554
*CONN
*I *14878:A1 I *D sky130_fd_sc_hd__o311a_1
*I *14847:A1 I *D sky130_fd_sc_hd__o211a_1
*I *14822:Y O *D sky130_fd_sc_hd__inv_2
*CAP
1 *14878:A1 7.15079e-05
2 *14847:A1 8.11407e-05
3 *14822:Y 8.81957e-05
4 *104:8 0.000240844
5 *14847:A1 *14847:B1 0.00014196
6 *14847:A1 *14878:B1 2.5415e-05
7 *14847:A1 *147:61 8.4047e-05
8 *14878:A1 *14847:A2 4.95571e-05
9 *14878:A1 *14878:B1 2.14474e-05
10 *14878:A1 *124:10 1.13812e-05
11 *14878:A1 *147:61 0.000165617
12 *104:8 *255:52 9.41704e-05
13 *14822:A *14847:A1 0.000140259
*RES
1 *14822:Y *104:8 39.0979 
2 *104:8 *14847:A1 40.7757 
3 *104:8 *14878:A1 40.2579 
*END

*D_NET *105 0.00999555
*CONN
*I *14907:B1 I *D sky130_fd_sc_hd__a211o_1
*I *14834:B1 I *D sky130_fd_sc_hd__a221oi_4
*I *14908:A2 I *D sky130_fd_sc_hd__a21bo_1
*I *14906:A I *D sky130_fd_sc_hd__clkbuf_4
*I *14824:B1 I *D sky130_fd_sc_hd__a22oi_4
*I *14889:A2 I *D sky130_fd_sc_hd__a21o_1
*I *14823:X O *D sky130_fd_sc_hd__and2_2
*CAP
1 *14907:B1 0
2 *14834:B1 2.77747e-05
3 *14908:A2 0.000220233
4 *14906:A 0
5 *14824:B1 0
6 *14889:A2 0
7 *14823:X 0
8 *105:93 0.00031211
9 *105:76 0.000543279
10 *105:63 0.00052289
11 *105:59 0.000524712
12 *105:42 0.000989044
13 *105:25 0.000741062
14 *105:12 0.00123759
15 *105:6 0.00106012
16 *14834:B1 *229:112 2.93747e-05
17 *14908:A2 *14908:B1_N 3.22879e-05
18 *14908:A2 *205:69 9.41704e-05
19 *105:12 *14919:B1 0
20 *105:12 *14919:C1 0
21 *105:12 *123:43 0
22 *105:12 *167:14 5.012e-05
23 *105:12 *169:14 0
24 *105:12 *180:22 4.66047e-05
25 *105:12 *191:14 0
26 *105:12 *243:24 0.00010018
27 *105:25 *14889:B1 5.50106e-05
28 *105:25 *180:22 0.000461562
29 *105:25 *243:24 0.000309073
30 *105:42 *14824:A1 4.00259e-06
31 *105:42 *147:106 0.000272383
32 *105:42 *180:16 0.000278871
33 *105:42 *180:22 0.000187129
34 *105:42 *229:40 0.000246748
35 *105:42 *243:14 0.00012238
36 *105:42 *243:24 7.42621e-05
37 *105:59 *14836:B 0.000116314
38 *105:59 *14909:A 1.32314e-05
39 *105:59 *174:26 0
40 *105:59 *180:16 5.98028e-05
41 *105:59 *183:10 3.91386e-05
42 *105:63 *113:42 0.000275473
43 *105:63 *174:26 9.35856e-05
44 *105:76 *113:42 0.000435943
45 *105:76 *174:26 3.72357e-05
46 *105:93 *14834:A1 0.000164291
47 *105:93 *229:112 8.48502e-06
48 *105:93 *239:139 0
49 *105:93 *241:27 1.01436e-05
50 *105:93 *251:43 0.000198941
*RES
1 *14823:X *105:6 38 
2 *105:6 *105:12 35.2586 
3 *105:12 *14889:A2 23 
4 *105:12 *105:25 7.00143 
5 *105:25 *14824:B1 23 
6 *105:25 *105:42 45.5357 
7 *105:42 *14906:A 23 
8 *105:42 *105:59 37.5814 
9 *105:59 *105:63 18.6664 
10 *105:63 *14908:A2 41.9564 
11 *105:63 *105:76 20.7793 
12 *105:76 *14834:B1 23.6214 
13 *105:76 *105:93 36.235 
14 *105:93 *14907:B1 23 
*END

*D_NET *106 0.00161347
*CONN
*I *14888:A I *D sky130_fd_sc_hd__nor2_1
*I *14886:A I *D sky130_fd_sc_hd__xnor2_1
*I *14826:A_N I *D sky130_fd_sc_hd__and2b_1
*I *14838:C I *D sky130_fd_sc_hd__nand3_1
*I *14824:Y O *D sky130_fd_sc_hd__a22oi_4
*CAP
1 *14888:A 5.12336e-05
2 *14886:A 0
3 *14826:A_N 0
4 *14838:C 0.000162341
5 *14824:Y 0.000177811
6 *106:28 7.47159e-05
7 *106:14 0.000338509
8 *106:12 0.000223132
9 *106:8 0.000201294
10 *14838:C *14826:B 5.47808e-05
11 *14838:C *108:8 1.94693e-05
12 *14888:A *14826:B 2.4754e-05
13 *14888:A *107:16 0.00010018
14 *106:8 *163:10 0
15 *106:8 *223:53 0
16 *106:8 *267:48 0
17 *106:14 *14826:B 0.000128539
18 *106:14 *163:10 5.67058e-05
19 *106:28 *107:16 0
*RES
1 *14824:Y *106:8 40.2579 
2 *106:8 *106:12 15.4971 
3 *106:12 *106:14 3.95643 
4 *106:14 *14838:C 26.0036 
5 *106:14 *14826:A_N 23 
6 *106:12 *106:28 0.497143 
7 *106:28 *14886:A 23 
8 *106:28 *14888:A 24.5743 
*END

*D_NET *107 0.00348929
*CONN
*I *14891:B1_N I *D sky130_fd_sc_hd__a21bo_1
*I *14888:B I *D sky130_fd_sc_hd__nor2_1
*I *14886:B I *D sky130_fd_sc_hd__xnor2_1
*I *14826:B I *D sky130_fd_sc_hd__and2b_1
*I *14825:Y O *D sky130_fd_sc_hd__nand2_1
*CAP
1 *14891:B1_N 0.000134553
2 *14888:B 0
3 *14886:B 0
4 *14826:B 0.000184134
5 *14825:Y 0
6 *107:16 0.000246802
7 *107:12 0.000825914
8 *107:4 0.000897798
9 *14826:B *165:8 0.000400204
10 *14891:B1_N *243:12 0.000170394
11 *14891:B1_N *243:14 1.24376e-05
12 *107:12 *183:20 6.79006e-05
13 *107:12 *224:134 0.000141888
14 *107:16 *165:8 9.90162e-05
15 *14838:C *14826:B 5.47808e-05
16 *14888:A *14826:B 2.4754e-05
17 *14888:A *107:16 0.00010018
18 *106:14 *14826:B 0.000128539
19 *106:28 *107:16 0
*RES
1 *14825:Y *107:4 23 
2 *107:4 *107:12 43.9614 
3 *107:12 *107:16 2.54786 
4 *107:16 *14826:B 29.3593 
5 *107:16 *14886:B 23 
6 *107:12 *14888:B 23 
7 *107:4 *14891:B1_N 25.0507 
*END

*D_NET *108 0.00346707
*CONN
*I *14842:A1 I *D sky130_fd_sc_hd__o211a_1
*I *14882:B I *D sky130_fd_sc_hd__or3_1
*I *14881:A1 I *D sky130_fd_sc_hd__o21ai_1
*I *14872:A1 I *D sky130_fd_sc_hd__o211ai_2
*I *14826:X O *D sky130_fd_sc_hd__and2b_1
*CAP
1 *14842:A1 0
2 *14882:B 0
3 *14881:A1 0.000246639
4 *14872:A1 0.000201431
5 *14826:X 0
6 *108:45 0.000109112
7 *108:12 0.000501839
8 *108:8 0.000492612
9 *108:4 0.000547956
10 *14872:A1 *119:64 0
11 *14872:A1 *152:8 6.17437e-06
12 *14872:A1 *161:10 8.62783e-05
13 *14872:A1 *237:12 0
14 *14881:A1 *159:8 7.3595e-05
15 *14881:A1 *160:8 0.000137242
16 *14881:A1 *161:10 0.000222123
17 *14881:A1 *161:19 0.000276128
18 *14881:A1 *237:12 0
19 *108:8 *14882:A 0.000259337
20 *108:8 *224:35 5.50049e-05
21 *108:8 *267:31 3.76196e-05
22 *108:12 *267:31 1.21972e-05
23 *108:45 *14889:B1 0
24 *108:45 *14920:A2 0
25 *108:45 *119:64 8.94394e-05
26 *108:45 *224:35 9.28739e-05
27 *14838:C *108:8 1.94693e-05
28 *100:29 *14881:A1 0
*RES
1 *14826:X *108:4 23 
2 *108:4 *108:8 7.31214 
3 *108:8 *108:12 15.6214 
4 *108:12 *14872:A1 41.5007 
5 *108:12 *14881:A1 44.8357 
6 *108:8 *14882:B 23 
7 *108:4 *108:45 32.61 
8 *108:45 *14842:A1 23 
*END

*D_NET *109 0.00548366
*CONN
*I *14892:B I *D sky130_fd_sc_hd__or3_1
*I *14830:B1 I *D sky130_fd_sc_hd__o221ai_4
*I *14835:A I *D sky130_fd_sc_hd__nor2_1
*I *14827:X O *D sky130_fd_sc_hd__o31a_2
*CAP
1 *14892:B 0.00019583
2 *14830:B1 3.62338e-05
3 *14835:A 0
4 *14827:X 0.00012058
5 *109:33 0.000545474
6 *109:22 0.000203694
7 *109:14 0.00138376
8 *109:10 0.000987234
9 *14830:B1 *14830:A2 9.5877e-05
10 *14830:B1 *14830:C1 5.50106e-05
11 *14830:B1 *231:119 2.02872e-05
12 *14892:B *14892:A 0.000145953
13 *14892:B *14892:C 1.21972e-05
14 *14892:B *110:26 7.34962e-05
15 *14892:B *111:25 3.70187e-05
16 *14892:B *173:10 5.67058e-05
17 *109:10 *223:12 9.2467e-06
18 *109:10 *223:16 5.41385e-05
19 *109:14 *14806:A 5.3304e-05
20 *109:14 *231:119 3.64736e-05
21 *109:22 *14897:B_N 7.90568e-05
22 *109:22 *242:24 0.000145049
23 *109:33 *14830:A2 0.0002263
24 *109:33 *110:26 4.6318e-06
25 *109:33 *111:25 5.94125e-05
26 *109:33 *117:12 1.44813e-05
27 *109:33 *231:119 2.60332e-05
28 *14830:A1 *109:14 0.000579172
29 *100:8 *109:10 5.93813e-05
30 *101:24 *109:10 0.000167624
*RES
1 *14827:X *109:10 41.0036 
2 *109:10 *109:14 28.485 
3 *109:14 *109:22 34.64 
4 *109:22 *14835:A 23 
5 *109:14 *109:33 19.8057 
6 *109:33 *14830:B1 39.0979 
7 *109:33 *14892:B 41.8321 
*END

*D_NET *110 0.00346515
*CONN
*I *14835:B I *D sky130_fd_sc_hd__nor2_1
*I *14892:C I *D sky130_fd_sc_hd__or3_1
*I *14897:A I *D sky130_fd_sc_hd__or2b_1
*I *14830:B2 I *D sky130_fd_sc_hd__o221ai_4
*I *14828:X O *D sky130_fd_sc_hd__and3_2
*CAP
1 *14835:B 0
2 *14892:C 0.000142522
3 *14897:A 0
4 *14830:B2 0
5 *14828:X 0.00065939
6 *110:26 0.0001034
7 *110:18 0.000123458
8 *110:16 0.000242217
9 *110:12 7.96369e-05
10 *110:10 0.00065939
11 *14892:C *14892:A 9.84851e-05
12 *14892:C *14897:B_N 1.14154e-05
13 *110:10 *14897:B_N 1.14452e-05
14 *110:10 *262:22 0.000837546
15 *110:16 *14897:B_N 5.80071e-05
16 *110:16 *117:12 9.84794e-05
17 *110:26 *14830:A2 5.67058e-05
18 *110:26 *117:12 0.000163343
19 *110:26 *231:119 2.93845e-05
20 *14892:B *14892:C 1.21972e-05
21 *14892:B *110:26 7.34962e-05
22 *109:33 *110:26 4.6318e-06
*RES
1 *14828:X *110:10 49.1029 
2 *110:10 *110:12 15 
3 *110:12 *110:16 2.42357 
4 *110:16 *110:18 0.497143 
5 *110:18 *110:26 32.8793 
6 *110:26 *14830:B2 23 
7 *110:18 *14897:A 23 
8 *110:16 *14892:C 26.3764 
9 *110:12 *14835:B 23 
*END

*D_NET *111 0.00261533
*CONN
*I *14892:A I *D sky130_fd_sc_hd__or3_1
*I *14830:C1 I *D sky130_fd_sc_hd__o221ai_4
*I *14896:A1 I *D sky130_fd_sc_hd__o21ba_1
*I *14829:Y O *D sky130_fd_sc_hd__nand2_1
*CAP
1 *14892:A 0.00017461
2 *14830:C1 8.28699e-05
3 *14896:A1 1.15297e-05
4 *14829:Y 0.000183317
5 *111:25 0.0004436
6 *111:10 0.000380966
7 *14830:C1 *14830:A2 2.4754e-05
8 *14830:C1 *231:119 0.000268047
9 *14892:A *14897:B_N 0
10 *14892:A *173:10 0.00010018
11 *14896:A1 *14837:B1 4.26942e-06
12 *14896:A1 *14895:B 1.37232e-05
13 *111:10 *14829:A 2.4754e-05
14 *111:10 *14837:B1 9.4304e-05
15 *111:10 *223:47 0.000240032
16 *111:10 *242:38 1.76557e-05
17 *111:10 *261:18 9.58714e-05
18 *111:25 *14829:A 0
19 *111:25 *14830:A2 4.08641e-05
20 *111:25 *14837:B1 1.40958e-05
21 *111:25 *14895:B 4.00259e-06
22 *111:25 *112:10 0
23 *111:25 *117:12 0
24 *14830:B1 *14830:C1 5.50106e-05
25 *14892:B *14892:A 0.000145953
26 *14892:B *111:25 3.70187e-05
27 *14892:C *14892:A 9.84851e-05
28 *109:33 *111:25 5.94125e-05
*RES
1 *14829:Y *111:10 28.4271 
2 *111:10 *14896:A1 23.4971 
3 *111:10 *111:25 18.3764 
4 *111:25 *14830:C1 41.0243 
5 *111:25 *14892:A 42.1843 
*END

*D_NET *112 0.00279434
*CONN
*I *14894:C1 I *D sky130_fd_sc_hd__o211ai_1
*I *14837:A1 I *D sky130_fd_sc_hd__a32oi_4
*I *14893:A2 I *D sky130_fd_sc_hd__a211o_1
*I *14830:Y O *D sky130_fd_sc_hd__o221ai_4
*CAP
1 *14894:C1 0.00017852
2 *14837:A1 0
3 *14893:A2 0
4 *14830:Y 0
5 *112:23 0.000117464
6 *112:17 0.000359625
7 *112:10 0.000347411
8 *112:4 0.000411053
9 *14894:C1 *14894:A2 1.37232e-05
10 *14894:C1 *14894:B1 0.000196965
11 *14894:C1 *174:18 9.58714e-05
12 *14894:C1 *231:119 8.96154e-05
13 *14894:C1 *242:24 0.000309305
14 *112:10 *14830:A2 0
15 *112:10 *14898:A1 6.57811e-05
16 *112:10 *119:10 0.000108681
17 *112:10 *147:106 2.46933e-05
18 *112:10 *171:10 6.68793e-05
19 *112:10 *223:53 0
20 *112:17 *231:119 9.62764e-05
21 *112:17 *242:24 0.000100733
22 *112:23 *14893:A1 0
23 *112:23 *14898:A1 0.000140958
24 *112:23 *171:10 2.60152e-05
25 *112:23 *173:10 3.70094e-05
26 *112:23 *174:18 7.76364e-06
27 *111:25 *112:10 0
*RES
1 *14830:Y *112:4 23 
2 *112:4 *112:10 36.1314 
3 *112:10 *14893:A2 23 
4 *112:4 *112:17 2.05071 
5 *112:17 *112:23 32.9621 
6 *112:23 *14837:A1 23 
7 *112:17 *14894:C1 29.5457 
*END

*D_NET *113 0.0125393
*CONN
*I *14884:S I *D sky130_fd_sc_hd__mux2_1
*I *14832:B I *D sky130_fd_sc_hd__nor2_2
*I *14891:A1 I *D sky130_fd_sc_hd__a21bo_1
*I *14899:A1 I *D sky130_fd_sc_hd__a21o_1
*I *15036:A I *D sky130_fd_sc_hd__buf_2
*I *14831:Y O *D sky130_fd_sc_hd__nor3_2
*CAP
1 *14884:S 0.000251375
2 *14832:B 7.81673e-05
3 *14891:A1 0
4 *14899:A1 0.000154109
5 *15036:A 0
6 *14831:Y 0.000311773
7 *113:42 0.000882584
8 *113:38 0.00111655
9 *113:23 0.000516181
10 *113:21 0.000457649
11 *113:19 0.00174538
12 *113:12 0.00174538
13 *113:10 0.000311773
14 *14832:B *14900:B1 1.32314e-05
15 *14832:B *114:10 9.61128e-05
16 *14884:S *205:63 8.02521e-05
17 *14884:S *205:69 0.000276445
18 *14899:A1 *14899:A2 1.59094e-05
19 *14899:A1 *14899:B1 4.37586e-06
20 *14899:A1 *205:69 0.000140958
21 *14899:A1 *242:64 0.000136486
22 *113:10 *239:8 4.23714e-05
23 *113:19 *14828:C 6.68919e-05
24 *113:19 *230:25 7.24484e-05
25 *113:19 *262:22 0.00118534
26 *113:23 *205:69 0.000423549
27 *113:23 *242:64 8.72173e-05
28 *113:38 *114:10 0.000195283
29 *113:38 *174:18 9.5877e-05
30 *113:42 *14834:A1 0
31 *113:42 *147:129 0
32 *113:42 *167:47 0
33 *113:42 *174:18 0
34 *113:42 *174:26 0
35 *113:42 *181:8 0.000511157
36 *113:42 *183:20 0
37 *113:42 *205:73 0.000186025
38 *113:42 *205:75 0.000437244
39 *113:42 *241:27 0
40 *113:42 *242:64 0
41 *113:42 *251:43 0
42 *14831:A *113:10 9.67842e-05
43 *39:25 *113:10 9.30054e-05
44 *87:10 *14884:S 0
45 *105:63 *113:42 0.000275473
46 *105:76 *113:42 0.000435943
*RES
1 *14831:Y *113:10 42.9093 
2 *113:10 *113:12 15 
3 *113:12 *15036:A 23 
4 *113:12 *113:19 36.83 
5 *113:19 *113:21 15 
6 *113:21 *113:23 5.77929 
7 *113:23 *14899:A1 41.0036 
8 *113:23 *113:38 18.9564 
9 *113:38 *113:42 37.33 
10 *113:42 *14891:A1 38 
11 *113:38 *14832:B 25.0507 
12 *113:21 *14884:S 44.1314 
*END

*D_NET *114 0.00570353
*CONN
*I *14900:B1 I *D sky130_fd_sc_hd__a21oi_1
*I *14894:A1 I *D sky130_fd_sc_hd__o211ai_1
*I *14907:C1 I *D sky130_fd_sc_hd__a211o_1
*I *14833:A I *D sky130_fd_sc_hd__inv_2
*I *14893:B1 I *D sky130_fd_sc_hd__a211o_1
*I *14832:Y O *D sky130_fd_sc_hd__nor2_2
*CAP
1 *14900:B1 0.000113624
2 *14894:A1 0
3 *14907:C1 0.000542814
4 *14833:A 1.51656e-05
5 *14893:B1 7.61179e-05
6 *14832:Y 0
7 *114:20 0.000155448
8 *114:18 0.000788088
9 *114:10 0.000375445
10 *114:4 0.000307958
11 *14833:A *14893:C1 0
12 *14893:B1 *14893:A1 2.02517e-05
13 *14893:B1 *14893:C1 0.000105068
14 *14893:B1 *147:114 0.000272383
15 *14900:B1 *14832:A 0
16 *14900:B1 *241:12 3.53115e-05
17 *14900:B1 *241:21 5.25848e-05
18 *14900:B1 *241:27 5.41385e-05
19 *14900:B1 *242:16 0.000302714
20 *14907:C1 *14893:C1 9.58714e-05
21 *14907:C1 *14907:A1 5.50049e-05
22 *14907:C1 *14907:A2 0
23 *14907:C1 *147:114 0.000263664
24 *14907:C1 *147:129 6.07175e-05
25 *114:10 *14894:A2 6.64558e-05
26 *114:10 *174:18 2.06822e-05
27 *114:10 *205:69 2.3529e-05
28 *114:10 *242:16 0.000477318
29 *114:10 *242:24 0.000178517
30 *114:10 *244:20 2.60152e-05
31 *114:18 *14894:A2 0.000185104
32 *114:18 *116:21 6.81755e-05
33 *114:18 *118:10 0.000136486
34 *114:18 *244:20 0.000289699
35 *114:20 *14893:C1 5.43443e-05
36 *114:20 *147:114 0.000180212
37 *14832:B *14900:B1 1.32314e-05
38 *14832:B *114:10 9.61128e-05
39 *113:38 *114:10 0.000195283
*RES
1 *14832:Y *114:4 23 
2 *114:4 *114:10 23.1407 
3 *114:10 *114:18 21.1936 
4 *114:18 *114:20 2.05071 
5 *114:20 *14893:B1 26.5007 
6 *114:20 *14833:A 23.4971 
7 *114:18 *14907:C1 33.5436 
8 *114:10 *14894:A1 38 
9 *114:4 *14900:B1 27.4743 
*END

*D_NET *115 0.000382955
*CONN
*I *14837:A2 I *D sky130_fd_sc_hd__a32oi_4
*I *14833:Y O *D sky130_fd_sc_hd__inv_2
*CAP
1 *14837:A2 0
2 *14833:Y 6.62929e-05
3 *115:8 6.62929e-05
4 *115:8 *14893:A1 8.16253e-05
5 *115:8 *231:127 0.000168744
*RES
1 *14833:Y *115:8 40.2579 
2 *115:8 *14837:A2 38 
*END

*D_NET *116 0.00285748
*CONN
*I *14894:A2 I *D sky130_fd_sc_hd__o211ai_1
*I *14837:A3 I *D sky130_fd_sc_hd__a32oi_4
*I *14893:C1 I *D sky130_fd_sc_hd__a211o_1
*I *14834:Y O *D sky130_fd_sc_hd__a221oi_4
*CAP
1 *14894:A2 0.000116143
2 *14837:A3 0
3 *14893:C1 0.000408652
4 *14834:Y 3.90016e-05
5 *116:21 0.000212848
6 *116:8 0.000544358
7 *14894:A2 *174:18 4.9662e-05
8 *14894:A2 *205:69 0.000196549
9 *14894:A2 *242:24 2.32004e-05
10 *116:8 *118:10 8.62783e-05
11 *116:8 *205:69 8.62783e-05
12 *116:21 *118:10 0.000206577
13 *116:21 *205:69 0.000299187
14 *14833:A *14893:C1 0
15 *14893:B1 *14893:C1 0.000105068
16 *14894:C1 *14894:A2 1.37232e-05
17 *14907:C1 *14893:C1 9.58714e-05
18 *114:10 *14894:A2 6.64558e-05
19 *114:18 *14894:A2 0.000185104
20 *114:18 *116:21 6.81755e-05
21 *114:20 *14893:C1 5.43443e-05
*RES
1 *14834:Y *116:8 39.2014 
2 *116:8 *14893:C1 44.235 
3 *116:8 *116:21 4.01857 
4 *116:21 *14837:A3 38 
5 *116:21 *14894:A2 42.205 
*END

*D_NET *117 0.0020817
*CONN
*I *14896:A2 I *D sky130_fd_sc_hd__o21ba_1
*I *14837:B1 I *D sky130_fd_sc_hd__a32oi_4
*I *14835:Y O *D sky130_fd_sc_hd__nor2_1
*CAP
1 *14896:A2 0
2 *14837:B1 0.00020612
3 *14835:Y 0.00034064
4 *117:14 0.00020612
5 *117:12 0.00034064
6 *14837:B1 *14837:B2 0.000120673
7 *14837:B1 *14895:B 0.000173452
8 *14837:B1 *119:10 5.3304e-05
9 *14837:B1 *171:10 1.57571e-05
10 *14837:B1 *223:47 0.000123934
11 *117:12 *14830:A2 0
12 *117:12 *14897:B_N 0.000107452
13 *117:12 *169:25 0
14 *117:12 *261:22 4.6318e-06
15 *14896:A1 *14837:B1 4.26942e-06
16 *109:33 *117:12 1.44813e-05
17 *110:16 *117:12 9.84794e-05
18 *110:26 *117:12 0.000163343
19 *111:10 *14837:B1 9.4304e-05
20 *111:25 *14837:B1 1.40958e-05
21 *111:25 *117:12 0
*RES
1 *14835:Y *117:12 44.4421 
2 *117:12 *117:14 15 
3 *117:14 *14837:B1 29.8564 
4 *117:14 *14896:A2 23 
*END

*D_NET *118 0.00421764
*CONN
*I *14899:B1 I *D sky130_fd_sc_hd__a21o_1
*I *14837:B2 I *D sky130_fd_sc_hd__a32oi_4
*I *14836:X O *D sky130_fd_sc_hd__and2_1
*CAP
1 *14899:B1 0.000344171
2 *14837:B2 0.000697612
3 *14836:X 0
4 *118:10 0.00146021
5 *118:6 0.000418428
6 *14837:B2 *14895:B 8.26285e-05
7 *14837:B2 *119:10 5.3304e-05
8 *14899:B1 *14899:A2 5.64339e-05
9 *118:10 *205:69 0.000259365
10 *118:10 *231:127 0.000216577
11 *118:10 *242:64 0
12 *118:10 *244:20 7.45175e-05
13 *14837:B1 *14837:B2 0.000120673
14 *14899:A1 *14899:B1 4.37586e-06
15 *114:18 *118:10 0.000136486
16 *116:8 *118:10 8.62783e-05
17 *116:21 *118:10 0.000206577
*RES
1 *14836:X *118:6 38 
2 *118:6 *118:10 27.47 
3 *118:10 *14837:B2 32.2179 
4 *118:10 *14899:B1 27.6814 
*END

*D_NET *119 0.0100391
*CONN
*I *14887:A I *D sky130_fd_sc_hd__xor2_1
*I *14882:C I *D sky130_fd_sc_hd__or3_1
*I *14842:A2 I *D sky130_fd_sc_hd__o211a_1
*I *14872:A2 I *D sky130_fd_sc_hd__o211ai_2
*I *14881:A2 I *D sky130_fd_sc_hd__o21ai_1
*I *14837:Y O *D sky130_fd_sc_hd__a32oi_4
*CAP
1 *14887:A 0
2 *14882:C 4.11105e-05
3 *14842:A2 0
4 *14872:A2 0
5 *14881:A2 0.0002111
6 *14837:Y 0.000110871
7 *119:64 0.000502349
8 *119:45 0.000613179
9 *119:41 0.000333703
10 *119:30 0.000887003
11 *119:22 0.00109604
12 *119:16 0.000950813
13 *119:10 0.000459788
14 *14881:A2 *122:10 0.000264564
15 *14882:C *14882:A 9.41704e-05
16 *14882:C *267:31 9.41704e-05
17 *119:10 *14830:A2 0
18 *119:16 *169:6 0.000226306
19 *119:16 *169:14 0.000227208
20 *119:22 *14919:C1 0
21 *119:22 *147:93 2.4754e-05
22 *119:22 *167:14 3.53115e-05
23 *119:22 *223:53 0
24 *119:22 *261:22 0.000274553
25 *119:22 *261:30 0.000892075
26 *119:30 *14881:B1 2.02872e-05
27 *119:30 *14887:B 0.00014196
28 *119:30 *122:10 9.41704e-05
29 *119:30 *147:93 0.00016148
30 *119:30 *167:14 0.000612366
31 *119:30 *261:30 0
32 *119:41 *121:37 0.000128583
33 *119:41 *147:42 0.000243307
34 *119:41 *147:93 9.85378e-05
35 *119:45 *121:37 0.000243587
36 *119:45 *147:42 0.000240426
37 *119:64 *14842:B1 0.000221997
38 *119:64 *14872:B1 7.06441e-05
39 *119:64 *14920:A2 0
40 *119:64 *123:14 1.3616e-05
41 *119:64 *152:8 1.24376e-05
42 *14837:B1 *119:10 5.3304e-05
43 *14837:B2 *119:10 5.3304e-05
44 *14872:A1 *119:64 0
45 *103:14 *119:41 9.191e-05
46 *108:45 *119:64 8.94394e-05
47 *112:10 *119:10 0.000108681
*RES
1 *14837:Y *119:10 40.175 
2 *119:10 *119:16 35.3857 
3 *119:16 *119:22 31.0329 
4 *119:22 *119:30 12.1179 
5 *119:30 *14881:A2 26.0036 
6 *119:30 *119:41 19.7229 
7 *119:41 *119:45 18.3143 
8 *119:45 *14872:A2 23 
9 *119:45 *119:64 38.0786 
10 *119:64 *14842:A2 23 
11 *119:41 *14882:C 39.0979 
12 *119:22 *14887:A 23 
*END

*D_NET *120 0.0010381
*CONN
*I *14842:B1 I *D sky130_fd_sc_hd__o211a_1
*I *14872:B1 I *D sky130_fd_sc_hd__o211ai_2
*I *14838:Y O *D sky130_fd_sc_hd__nand3_1
*CAP
1 *14842:B1 0.000117024
2 *14872:B1 5.11399e-05
3 *14838:Y 7.27588e-05
4 *120:10 0.000168164
5 *120:8 7.27588e-05
6 *14842:B1 *14842:C1 0.000106394
7 *14842:B1 *14872:C1 0
8 *14872:B1 *14842:C1 7.53384e-06
9 *14872:B1 *14872:C1 5.90675e-06
10 *14872:B1 *123:14 5.70419e-05
11 *120:8 *123:14 3.46181e-05
12 *120:8 *224:35 5.21127e-05
13 *119:64 *14842:B1 0.000221997
14 *119:64 *14872:B1 7.06441e-05
*RES
1 *14838:Y *120:8 39.5536 
2 *120:8 *120:10 15 
3 *120:10 *14872:B1 25.0921 
4 *120:10 *14842:B1 26.8529 
*END

*D_NET *121 0.00365289
*CONN
*I *14841:A_N I *D sky130_fd_sc_hd__nand2b_2
*I *14920:C1 I *D sky130_fd_sc_hd__a211o_1
*I *14883:C1 I *D sky130_fd_sc_hd__a311o_2
*I *14839:X O *D sky130_fd_sc_hd__o31a_1
*CAP
1 *14841:A_N 2.16038e-05
2 *14920:C1 0
3 *14883:C1 0
4 *14839:X 0.000285106
5 *121:37 0.000328987
6 *121:27 0.000705393
7 *121:12 0.000354802
8 *121:10 0.000285106
9 *121:10 *161:19 0
10 *121:10 *237:12 0.000179931
11 *121:27 *14883:A1 5.12055e-06
12 *121:27 *147:27 9.03221e-05
13 *121:27 *147:40 9.87455e-05
14 *121:37 *14920:A1 5.67058e-05
15 *121:37 *147:42 9.38233e-05
16 *14821:B1_N *121:10 9.67842e-05
17 *100:16 *121:10 0
18 *100:29 *121:10 0.000117862
19 *103:14 *121:37 0.000560426
20 *119:41 *121:37 0.000128583
21 *119:45 *121:37 0.000243587
*RES
1 *14839:X *121:10 44.1729 
2 *121:10 *121:12 15 
3 *121:12 *14883:C1 23 
4 *121:12 *121:27 6.54571 
5 *121:27 *121:37 40.0879 
6 *121:37 *14920:C1 23 
7 *121:27 *14841:A_N 23.4971 
*END

*D_NET *122 0.00374251
*CONN
*I *14841:B I *D sky130_fd_sc_hd__nand2b_2
*I *14920:A1 I *D sky130_fd_sc_hd__a211o_1
*I *14840:X O *D sky130_fd_sc_hd__or3_1
*CAP
1 *14841:B 0
2 *14920:A1 0.000355709
3 *14840:X 0.000321561
4 *122:10 0.00067727
5 *14920:A1 *123:8 0.000208529
6 *14920:A1 *123:14 0.000273623
7 *14920:A1 *124:10 4.334e-05
8 *14920:A1 *125:48 6.00453e-05
9 *14920:A1 *147:42 0.000587021
10 *14920:A1 *224:35 0
11 *122:10 *14881:B1 0.000435854
12 *122:10 *123:8 6.16439e-05
13 *122:10 *123:43 9.85378e-05
14 *122:10 *147:42 2.55642e-05
15 *122:10 *147:93 0.000133316
16 *14840:C *122:10 2.93747e-05
17 *14881:A2 *122:10 0.000264564
18 *100:16 *122:10 1.56762e-05
19 *119:30 *122:10 9.41704e-05
20 *121:37 *14920:A1 5.67058e-05
*RES
1 *14840:X *122:10 46.12 
2 *122:10 *14920:A1 48.9371 
3 *122:10 *14841:B 38 
*END

*D_NET *123 0.0056022
*CONN
*I *14919:B1 I *D sky130_fd_sc_hd__a211oi_1
*I *14881:B1 I *D sky130_fd_sc_hd__o21ai_1
*I *14882:A I *D sky130_fd_sc_hd__or3_1
*I *14842:C1 I *D sky130_fd_sc_hd__o211a_1
*I *14872:C1 I *D sky130_fd_sc_hd__o211ai_2
*I *14841:Y O *D sky130_fd_sc_hd__nand2b_2
*CAP
1 *14919:B1 0.000630568
2 *14881:B1 0.000202323
3 *14882:A 0.000139554
4 *14842:C1 0.000205587
5 *14872:C1 2.14194e-05
6 *14841:Y 0
7 *123:43 0.000928926
8 *123:14 0.000496905
9 *123:8 0.0005269
10 *123:6 0.000213482
11 *14842:C1 *124:8 4.34745e-05
12 *14881:B1 *147:93 3.3577e-05
13 *14882:A *224:35 0
14 *14882:A *267:31 8.97596e-05
15 *14919:B1 *147:93 4.07715e-05
16 *14919:B1 *161:19 0
17 *123:8 *167:14 0
18 *123:8 *243:24 2.36377e-05
19 *123:8 *267:31 0.000114092
20 *123:14 *124:8 9.84851e-05
21 *123:14 *224:35 0
22 *123:14 *243:24 4.21594e-06
23 *123:43 *147:93 1.12487e-05
24 *123:43 *167:14 0
25 *14842:B1 *14842:C1 0.000106394
26 *14842:B1 *14872:C1 0
27 *14872:B1 *14842:C1 7.53384e-06
28 *14872:B1 *14872:C1 5.90675e-06
29 *14872:B1 *123:14 5.70419e-05
30 *14882:C *14882:A 9.41704e-05
31 *14920:A1 *123:8 0.000208529
32 *14920:A1 *123:14 0.000273623
33 *100:16 *14881:B1 0.00010018
34 *103:14 *14919:B1 0
35 *105:12 *14919:B1 0
36 *105:12 *123:43 0
37 *108:8 *14882:A 0.000259337
38 *119:30 *14881:B1 2.02872e-05
39 *119:64 *123:14 1.3616e-05
40 *120:8 *123:14 3.46181e-05
41 *122:10 *14881:B1 0.000435854
42 *122:10 *123:8 6.16439e-05
43 *122:10 *123:43 9.85378e-05
*RES
1 *14841:Y *123:6 38 
2 *123:6 *123:8 3.66643 
3 *123:8 *123:14 20.2407 
4 *123:14 *14872:C1 23.4971 
5 *123:14 *14842:C1 27.4536 
6 *123:8 *14882:A 41.5007 
7 *123:6 *123:43 1.90571 
8 *123:43 *14881:B1 43.3857 
9 *123:43 *14919:B1 49.0821 
*END

*D_NET *124 0.00268012
*CONN
*I *14878:A2 I *D sky130_fd_sc_hd__o311a_1
*I *14847:A2 I *D sky130_fd_sc_hd__o211a_1
*I *14842:X O *D sky130_fd_sc_hd__o211a_1
*CAP
1 *14878:A2 0
2 *14847:A2 0.000231095
3 *14842:X 9.63036e-05
4 *124:10 0.000860053
5 *124:8 0.000725262
6 *14847:A2 *14878:B1 0.000165286
7 *14847:A2 *14878:C1 2.35118e-06
8 *124:10 *14878:C1 1.142e-05
9 *124:10 *147:42 0.000248955
10 *124:10 *147:61 2.23754e-05
11 *124:10 *224:35 0
12 *14842:C1 *124:8 4.34745e-05
13 *14878:A1 *14847:A2 4.95571e-05
14 *14878:A1 *124:10 1.13812e-05
15 *14920:A1 *124:10 4.334e-05
16 *103:14 *14847:A2 7.07819e-05
17 *123:14 *124:8 9.84851e-05
*RES
1 *14842:X *124:8 39.5743 
2 *124:8 *124:10 13.1743 
3 *124:10 *14847:A2 43.0336 
4 *124:10 *14878:A2 38 
*END

*D_NET *125 0.00635638
*CONN
*I *14920:B1 I *D sky130_fd_sc_hd__a211o_1
*I *14845:A_N I *D sky130_fd_sc_hd__and2b_1
*I *14905:B I *D sky130_fd_sc_hd__or2_1
*I *14843:X O *D sky130_fd_sc_hd__o211a_1
*CAP
1 *14920:B1 0
2 *14845:A_N 0
3 *14905:B 0.000164237
4 *14843:X 3.82683e-05
5 *125:48 0.00101209
6 *125:33 0.00202232
7 *125:8 0.00121274
8 *14905:B *255:58 9.65297e-06
9 *125:8 *231:127 2.71831e-05
10 *125:33 *127:8 0
11 *125:33 *229:61 0
12 *125:33 *231:127 0.000225435
13 *125:33 *255:52 0.00105402
14 *125:48 *14920:A2 0.000358425
15 *125:48 *191:14 0
16 *125:48 *229:42 0
17 *125:48 *229:50 0
18 *14814:A *14905:B 1.14667e-05
19 *14814:A *125:33 3.06888e-05
20 *14844:C1 *14905:B 1.78464e-05
21 *14920:A1 *125:48 6.00453e-05
22 *93:35 *14905:B 2.05503e-05
23 *93:35 *125:8 6.18619e-05
24 *94:14 *125:33 0
25 *95:27 *14905:B 2.95526e-05
*RES
1 *14843:X *125:8 39.0254 
2 *125:8 *14905:B 40.3925 
3 *125:8 *125:33 47.9489 
4 *125:33 *14845:A_N 38 
5 *125:33 *125:48 34.9271 
6 *125:48 *14920:B1 23 
*END

*D_NET *126 0.00204914
*CONN
*I *14922:C1 I *D sky130_fd_sc_hd__o211a_1
*I *14845:B I *D sky130_fd_sc_hd__and2b_1
*I *14844:X O *D sky130_fd_sc_hd__a211o_1
*CAP
1 *14922:C1 8.09909e-05
2 *14845:B 0
3 *14844:X 0.000667813
4 *126:8 0.000748804
5 *14922:C1 *191:14 0.000100477
6 *96:16 *14922:C1 7.79323e-05
7 *96:16 *126:8 0.000373122
*RES
1 *14844:X *126:8 33.1707 
2 *126:8 *14845:B 23 
3 *126:8 *14922:C1 25.4236 
*END

*D_NET *127 0.00248374
*CONN
*I *14846:A I *D sky130_fd_sc_hd__inv_2
*I *14873:B1 I *D sky130_fd_sc_hd__a21o_1
*I *14845:X O *D sky130_fd_sc_hd__and2b_1
*CAP
1 *14846:A 0.000118663
2 *14873:B1 0.000467507
3 *14845:X 0.000148962
4 *127:8 0.000735132
5 *14846:A *157:16 0.000270682
6 *14873:B1 *194:10 0
7 *127:8 *194:10 0
8 *15022:RESET_B *14873:B1 0.000742789
9 *125:33 *127:8 0
*RES
1 *14845:X *127:8 40.2579 
2 *127:8 *14873:B1 48.8543 
3 *127:8 *14846:A 41.0036 
*END

*D_NET *128 0.00202554
*CONN
*I *14878:A3 I *D sky130_fd_sc_hd__o311a_1
*I *14847:B1 I *D sky130_fd_sc_hd__o211a_1
*I *14846:Y O *D sky130_fd_sc_hd__inv_2
*CAP
1 *14878:A3 0
2 *14847:B1 0.000203814
3 *14846:Y 2.67432e-05
4 *128:23 0.000296081
5 *128:6 0.000526639
6 *14847:B1 *14876:A1 9.84794e-05
7 *14847:B1 *129:10 5.50106e-05
8 *14847:B1 *157:16 4.9662e-05
9 *14847:B1 *255:52 1.03955e-05
10 *128:6 *157:16 2.93845e-05
11 *128:23 *14922:A2 6.17437e-06
12 *128:23 *194:8 2.64616e-05
13 *128:23 *194:10 8.95337e-05
14 *128:23 *224:22 0.000240717
15 *14822:A *14847:B1 0.000108934
16 *14847:A1 *14847:B1 0.00014196
17 *96:16 *128:23 2.20564e-05
18 *96:22 *128:23 9.3495e-05
*RES
1 *14846:Y *128:6 23.6214 
2 *128:6 *14847:B1 27.93 
3 *128:6 *128:23 36.3179 
4 *128:23 *14878:A3 23 
*END

*D_NET *129 0.00467722
*CONN
*I *14869:C I *D sky130_fd_sc_hd__or3_1
*I *14854:A2 I *D sky130_fd_sc_hd__o21ai_2
*I *14876:B1 I *D sky130_fd_sc_hd__a211oi_1
*I *14847:X O *D sky130_fd_sc_hd__o211a_1
*CAP
1 *14869:C 0.000143639
2 *14854:A2 0
3 *14876:B1 0
4 *14847:X 0.000120174
5 *129:39 0.000775162
6 *129:22 0.000591354
7 *129:10 0.00134305
8 *14869:C *14869:A 0.000358425
9 *129:10 *14878:B1 4.6318e-06
10 *129:10 *147:61 4.08537e-05
11 *129:10 *153:8 4.08537e-05
12 *129:10 *224:22 0
13 *129:22 *153:8 1.01436e-05
14 *129:22 *236:52 0
15 *129:22 *237:23 7.03766e-05
16 *129:39 *14869:A 0.000169688
17 *129:39 *135:23 5.67058e-05
18 *129:39 *177:25 0.000150888
19 *129:39 *194:10 0
20 *129:39 *224:22 0
21 *14847:B1 *129:10 5.50106e-05
22 *14874:A *129:39 0
23 *15022:RESET_B *129:22 0.000428025
24 *92:21 *129:39 0
25 *98:10 *129:39 0.000296732
26 *103:18 *129:22 2.15048e-05
*RES
1 *14847:X *129:10 40.3511 
2 *129:10 *129:22 39.0625 
3 *129:22 *14876:B1 38 
4 *129:10 *129:39 29.4068 
5 *129:39 *14854:A2 23 
6 *129:39 *14869:C 26.9564 
*END

*D_NET *130 0.00186771
*CONN
*I *14902:A I *D sky130_fd_sc_hd__or2_1
*I *14851:A2 I *D sky130_fd_sc_hd__o211a_1
*I *14849:B1 I *D sky130_fd_sc_hd__a21oi_1
*I *14848:X O *D sky130_fd_sc_hd__and3_1
*CAP
1 *14902:A 0.000254149
2 *14851:A2 9.8797e-06
3 *14849:B1 0.000200338
4 *14848:X 4.47845e-05
5 *130:14 0.000261598
6 *130:8 0.000350314
7 *14849:B1 *14851:A1 0.000254009
8 *14849:B1 *224:68 1.76557e-05
9 *14851:A2 *14851:A1 1.14154e-05
10 *14851:A2 *14851:B1 1.11508e-05
11 *14851:A2 *14851:C1 4.28848e-07
12 *14902:A *14942:B 0.000171906
13 *14902:A *185:10 0
14 *14902:A *224:68 4.21656e-05
15 *14902:A *231:135 8.8983e-05
16 *130:8 *224:68 2.79004e-05
17 *130:8 *231:135 8.85189e-05
18 *130:14 *14851:B1 1.39762e-05
19 *130:14 *224:68 1.85413e-05
*RES
1 *14848:X *130:8 39.2014 
2 *130:8 *130:14 16.1186 
3 *130:14 *14849:B1 27.1221 
4 *130:14 *14851:A2 23.4971 
5 *130:8 *14902:A 42.785 
*END

*D_NET *131 0.00094061
*CONN
*I *14855:B1 I *D sky130_fd_sc_hd__a21o_1
*I *14850:B1_N I *D sky130_fd_sc_hd__a21bo_1
*I *14849:Y O *D sky130_fd_sc_hd__a21oi_1
*CAP
1 *14855:B1 6.21729e-05
2 *14850:B1_N 0
3 *14849:Y 0.000132272
4 *131:12 7.3036e-05
5 *131:8 0.000143135
6 *14855:B1 *133:16 1.32314e-05
7 *14855:B1 *247:32 0.000127821
8 *131:8 *133:16 0.000193388
9 *131:8 *185:16 1.44813e-05
10 *131:8 *229:61 0
11 *131:8 *247:45 6.93553e-05
12 *131:12 *133:16 5.50106e-05
13 *131:12 *247:32 5.67058e-05
*RES
1 *14849:Y *131:8 41.3143 
2 *131:8 *131:12 15.6214 
3 *131:12 *14850:B1_N 23 
4 *131:12 *14855:B1 24.5743 
*END

*D_NET *132 0.0031815
*CONN
*I *14853:A I *D sky130_fd_sc_hd__nand2_1
*I *14923:C1 I *D sky130_fd_sc_hd__o311a_1
*I *14929:B1 I *D sky130_fd_sc_hd__o31ai_1
*I *14850:X O *D sky130_fd_sc_hd__a21bo_1
*CAP
1 *14853:A 0.000168149
2 *14923:C1 0.000245836
3 *14929:B1 5.18934e-05
4 *14850:X 0.000170339
5 *132:17 0.000413986
6 *132:6 0.000222233
7 *14853:A *14923:A3 0
8 *14853:A *134:10 4.334e-05
9 *14853:A *147:75 0
10 *14853:A *194:10 0
11 *14923:C1 *14923:A3 0
12 *14923:C1 *147:75 0
13 *14923:C1 *200:8 0
14 *14923:C1 *233:72 0.000185434
15 *14929:B1 *133:20 7.88828e-05
16 *14929:B1 *137:22 0.000153369
17 *132:6 *14850:A2 5.50106e-05
18 *132:6 *133:16 0.000357766
19 *132:6 *133:20 0.000128401
20 *132:6 *137:22 0.000906858
*RES
1 *14850:X *132:6 33.15 
2 *132:6 *14929:B1 25.0714 
3 *132:6 *132:17 15 
4 *132:17 *14923:C1 43.0129 
5 *132:17 *14853:A 41.1071 
*END

*D_NET *133 0.00501586
*CONN
*I *14902:B I *D sky130_fd_sc_hd__or2_1
*I *14852:A I *D sky130_fd_sc_hd__inv_2
*I *14929:A1 I *D sky130_fd_sc_hd__o31ai_1
*I *14923:A1 I *D sky130_fd_sc_hd__o311a_1
*I *14851:X O *D sky130_fd_sc_hd__o211a_1
*CAP
1 *14902:B 0.000203828
2 *14852:A 2.34823e-05
3 *14929:A1 0
4 *14923:A1 0
5 *14851:X 8.72101e-05
6 *133:28 0.00012253
7 *133:20 0.000435484
8 *133:16 0.000967318
9 *133:8 0.00092192
10 *14902:B *151:22 5.67058e-05
11 *14902:B *185:10 0.000167443
12 *14902:B *229:61 0
13 *133:8 *14851:A1 4.96717e-05
14 *133:16 *14850:A1 2.93747e-05
15 *133:16 *14850:A2 0.00014196
16 *133:16 *185:10 0.000106725
17 *133:16 *185:16 5.59262e-05
18 *133:16 *224:74 9.24795e-06
19 *133:16 *229:61 0
20 *133:16 *247:32 4.66047e-05
21 *133:20 *134:10 0.00010018
22 *133:20 *137:22 0.000107005
23 *133:28 *14923:A2 2.64616e-05
24 *133:28 *136:12 0.000243605
25 *133:28 *137:30 0.00021673
26 *133:28 *177:25 1.47563e-05
27 *133:28 *233:72 5.50106e-05
28 *14855:B1 *133:16 1.32314e-05
29 *14929:B1 *133:20 7.88828e-05
30 *131:8 *133:16 0.000193388
31 *131:12 *133:16 5.50106e-05
32 *132:6 *133:16 0.000357766
33 *132:6 *133:20 0.000128401
*RES
1 *14851:X *133:8 39.0979 
2 *133:8 *133:16 29.5621 
3 *133:16 *133:20 6.83571 
4 *133:20 *133:28 33.9357 
5 *133:28 *14923:A1 23 
6 *133:20 *14929:A1 23 
7 *133:16 *14852:A 23.4971 
8 *133:8 *14902:B 42.3086 
*END

*D_NET *134 0.000483438
*CONN
*I *14853:B I *D sky130_fd_sc_hd__nand2_1
*I *14852:Y O *D sky130_fd_sc_hd__inv_2
*CAP
1 *14853:B 0
2 *14852:Y 0.000169959
3 *134:10 0.000169959
4 *134:10 *147:75 0
5 *134:10 *194:10 0
6 *14853:A *134:10 4.334e-05
7 *133:20 *134:10 0.00010018
*RES
1 *14852:Y *134:10 41.0036 
2 *134:10 *14853:B 38 
*END

*D_NET *135 0.00348436
*CONN
*I *14869:A I *D sky130_fd_sc_hd__or3_1
*I *14854:B1 I *D sky130_fd_sc_hd__o21ai_2
*I *14917:A1 I *D sky130_fd_sc_hd__a21boi_1
*I *14853:Y O *D sky130_fd_sc_hd__nand2_1
*CAP
1 *14869:A 0.000132789
2 *14854:B1 0
3 *14917:A1 7.08443e-05
4 *14853:Y 0.000561984
5 *135:23 0.000240481
6 *135:8 0.000740521
7 *14869:A *14870:B 0.000400204
8 *14917:A1 *177:25 7.66085e-05
9 *135:23 *177:25 5.01247e-05
10 *14869:B *14869:A 4.6898e-05
11 *14869:C *14869:A 0.000358425
12 *14917:A2 *14917:A1 0.000227497
13 *14917:A2 *135:23 0.000157309
14 *98:10 *135:23 1.14452e-05
15 *98:25 *14869:A 8.43466e-05
16 *98:25 *135:23 9.84851e-05
17 *129:39 *14869:A 0.000169688
18 *129:39 *135:23 5.67058e-05
*RES
1 *14853:Y *135:8 44.815 
2 *135:8 *14917:A1 40.9621 
3 *135:8 *135:23 18.3557 
4 *135:23 *14854:B1 23 
5 *135:23 *14869:A 29.9807 
*END

*D_NET *136 0.00629061
*CONN
*I *14870:B I *D sky130_fd_sc_hd__and3_1
*I *14862:A I *D sky130_fd_sc_hd__and3_1
*I *14863:A1 I *D sky130_fd_sc_hd__a21oi_1
*I *14928:A2 I *D sky130_fd_sc_hd__a31o_1
*I *14927:A1 I *D sky130_fd_sc_hd__a21oi_1
*I *14854:Y O *D sky130_fd_sc_hd__o21ai_2
*CAP
1 *14870:B 0.000289963
2 *14862:A 0
3 *14863:A1 0.000229935
4 *14928:A2 2.00578e-05
5 *14927:A1 4.19204e-05
6 *14854:Y 0
7 *136:34 0.000343831
8 *136:25 0.000243018
9 *136:14 0.000150985
10 *136:12 0.00081809
11 *136:4 0.00110805
12 *14863:A1 *14862:C 2.66989e-05
13 *14863:A1 *14863:A2 2.65879e-05
14 *14863:A1 *14863:B1 4.98966e-05
15 *14863:A1 *143:17 2.9938e-05
16 *14870:B *14870:C 5.20072e-05
17 *14927:A1 *137:30 1.14762e-05
18 *14928:A2 *14862:C 0
19 *14928:A2 *14927:A2 0
20 *136:12 *14860:B 6.38845e-05
21 *136:12 *14923:A3 9.28945e-05
22 *136:12 *14930:A1 0.000127272
23 *136:12 *137:30 0.000583863
24 *136:12 *140:12 0.000409949
25 *136:12 *143:8 0
26 *136:12 *177:25 0.000125758
27 *136:12 *194:10 0.000179579
28 *136:12 *197:8 1.17049e-05
29 *136:12 *200:8 1.52259e-05
30 *136:12 *201:8 2.70469e-05
31 *136:12 *225:37 6.07611e-06
32 *136:12 *225:43 0
33 *136:25 *137:30 3.7122e-06
34 *136:25 *137:39 5.10805e-05
35 *136:25 *137:48 1.76557e-05
36 *136:25 *225:37 2.02517e-05
37 *136:34 *137:48 2.98648e-05
38 *136:34 *143:17 8.1796e-05
39 *14869:A *14870:B 0.000400204
40 *14869:B *14870:B 0.00035673
41 *133:28 *136:12 0.000243605
*RES
1 *14854:Y *136:4 23 
2 *136:4 *136:12 35.9836 
3 *136:12 *136:14 15 
4 *136:14 *14927:A1 23.6214 
5 *136:14 *136:25 2.54786 
6 *136:25 *14928:A2 23.4971 
7 *136:25 *136:34 2.52714 
8 *136:34 *14863:A1 26.9771 
9 *136:34 *14862:A 23 
10 *136:4 *14870:B 31.265 
*END

*D_NET *137 0.00774935
*CONN
*I *14917:B1_N I *D sky130_fd_sc_hd__a21boi_1
*I *14863:A2 I *D sky130_fd_sc_hd__a21oi_1
*I *14862:B I *D sky130_fd_sc_hd__and3_1
*I *14928:A3 I *D sky130_fd_sc_hd__a31o_1
*I *14927:A2 I *D sky130_fd_sc_hd__a21oi_1
*I *14855:X O *D sky130_fd_sc_hd__a21o_1
*CAP
1 *14917:B1_N 0
2 *14863:A2 0.000163029
3 *14862:B 2.34823e-05
4 *14928:A3 1.17411e-05
5 *14927:A2 2.80792e-05
6 *14855:X 0.000319708
7 *137:48 0.000369583
8 *137:39 0.00025215
9 *137:30 0.000590309
10 *137:22 0.00117352
11 *137:14 0.000988334
12 *14863:A2 *14863:B1 0.000144147
13 *14927:A2 *14931:A1 1.37232e-05
14 *137:14 *14850:A2 1.58805e-05
15 *137:14 *224:74 0.00014196
16 *137:14 *224:80 1.02561e-05
17 *137:14 *247:32 0.00014196
18 *137:22 *14850:A2 2.18409e-05
19 *137:22 *14929:A2 5.75819e-05
20 *137:22 *224:74 9.67842e-05
21 *137:30 *14923:A2 0.000111852
22 *137:30 *14931:A2 5.3304e-05
23 *137:30 *177:25 6.48142e-05
24 *137:30 *189:8 0.00022706
25 *137:30 *201:8 0.000322901
26 *137:30 *225:12 0
27 *137:39 *14931:A2 5.50106e-05
28 *137:48 *14863:B1 1.32314e-05
29 *137:48 *143:17 0.000228909
30 *14863:A1 *14863:A2 2.65879e-05
31 *14927:A1 *137:30 1.14762e-05
32 *14928:A2 *14927:A2 0
33 *14929:B1 *137:22 0.000153369
34 *132:6 *137:22 0.000906858
35 *133:20 *137:22 0.000107005
36 *133:28 *137:30 0.00021673
37 *136:12 *137:30 0.000583863
38 *136:25 *137:30 3.7122e-06
39 *136:25 *137:39 5.10805e-05
40 *136:25 *137:48 1.76557e-05
41 *136:34 *137:48 2.98648e-05
*RES
1 *14855:X *137:14 42.9714 
2 *137:14 *137:22 30.5564 
3 *137:22 *137:30 44.1479 
4 *137:30 *14927:A2 23.8493 
5 *137:30 *137:39 1.57429 
6 *137:39 *14928:A3 23.4971 
7 *137:39 *137:48 3.95643 
8 *137:48 *14862:B 23.4971 
9 *137:48 *14863:A2 26.8529 
10 *137:22 *14917:B1_N 23 
*END

*D_NET *138 0.00287478
*CONN
*I *14913:A1 I *D sky130_fd_sc_hd__o41ai_1
*I *14857:B1 I *D sky130_fd_sc_hd__a21oi_2
*I *14856:X O *D sky130_fd_sc_hd__and3_1
*CAP
1 *14913:A1 0
2 *14857:B1 0.000314749
3 *14856:X 0.000226551
4 *138:10 0.000314749
5 *138:8 0.000226551
6 *14857:B1 *14913:A4 0.00100273
7 *14857:B1 *180:150 0.000279416
8 *14857:B1 *229:20 5.67058e-05
9 *138:8 *14941:A4 0.000238194
10 *138:8 *175:58 0
11 *138:8 *206:10 0.000165593
12 *138:8 *238:131 4.95339e-05
*RES
1 *14856:X *138:8 42.7229 
2 *138:8 *138:10 15 
3 *138:10 *14857:B1 34.6 
4 *138:10 *14913:A1 23 
*END

*D_NET *139 0.0035139
*CONN
*I *14918:A2 I *D sky130_fd_sc_hd__o211a_1
*I *14858:B_N I *D sky130_fd_sc_hd__or2b_1
*I *14859:A I *D sky130_fd_sc_hd__or2b_1
*I *14901:A I *D sky130_fd_sc_hd__nor2b_2
*I *14857:Y O *D sky130_fd_sc_hd__a21oi_2
*CAP
1 *14918:A2 0.000329881
2 *14858:B_N 0
3 *14859:A 0.000156851
4 *14901:A 0
5 *14857:Y 0.000134433
6 *139:19 0.000283013
7 *139:12 0.000505156
8 *139:6 0.000843307
9 *14859:A *14901:B_N 0.000152468
10 *14859:A *140:6 9.58714e-05
11 *14859:A *148:10 7.74585e-05
12 *14859:A *225:59 0.000141954
13 *14918:A2 *14857:A1 0.000133986
14 *139:6 *14857:A1 7.24365e-05
15 *139:12 *180:104 0
16 *139:12 *229:20 0
17 *139:19 *14901:B_N 0.000114032
18 *139:19 *148:10 0.000443679
19 *14918:C1 *14918:A2 2.93747e-05
20 *103:33 *139:12 0
*RES
1 *14857:Y *139:6 25.0507 
2 *139:6 *139:12 36.4836 
3 *139:12 *14901:A 23 
4 *139:12 *139:19 4.90929 
5 *139:19 *14859:A 27.8264 
6 *139:19 *14858:B_N 23 
7 *139:6 *14918:A2 28.2821 
*END

*D_NET *140 0.00219487
*CONN
*I *14860:A I *D sky130_fd_sc_hd__and2_1
*I *14923:B1 I *D sky130_fd_sc_hd__o311a_1
*I *14858:X O *D sky130_fd_sc_hd__or2b_1
*CAP
1 *14860:A 0
2 *14923:B1 0
3 *14858:X 0.000179487
4 *140:12 0.000339233
5 *140:6 0.00051872
6 *140:6 *14860:B 5.50049e-05
7 *140:6 *148:10 0.0001262
8 *140:12 *14860:B 6.16531e-05
9 *140:12 *14930:A1 0.000140949
10 *140:12 *142:10 3.71198e-05
11 *140:12 *200:8 0.000230681
12 *14859:A *140:6 9.58714e-05
13 *136:12 *140:12 0.000409949
*RES
1 *14858:X *140:6 26.48 
2 *140:6 *140:12 38.5964 
3 *140:12 *14923:B1 23 
4 *140:6 *14860:A 23 
*END

*D_NET *141 0.000837898
*CONN
*I *14930:A1 I *D sky130_fd_sc_hd__a211o_1
*I *14860:B I *D sky130_fd_sc_hd__and2_1
*I *14859:X O *D sky130_fd_sc_hd__or2b_1
*CAP
1 *14930:A1 5.20318e-05
2 *14860:B 7.28593e-05
3 *14859:X 0
4 *141:6 0.000124891
5 *14860:B *148:10 0.000139352
6 *136:12 *14860:B 6.38845e-05
7 *136:12 *14930:A1 0.000127272
8 *140:6 *14860:B 5.50049e-05
9 *140:12 *14860:B 6.16531e-05
10 *140:12 *14930:A1 0.000140949
*RES
1 *14859:X *141:6 38 
2 *141:6 *14860:B 40.4236 
3 *141:6 *14930:A1 39.9057 
*END

*D_NET *142 0.00183543
*CONN
*I *14861:A I *D sky130_fd_sc_hd__inv_2
*I *14925:A1 I *D sky130_fd_sc_hd__o211a_1
*I *14860:X O *D sky130_fd_sc_hd__and2_1
*CAP
1 *14861:A 4.23253e-05
2 *14925:A1 0.000247059
3 *14860:X 0.000105346
4 *142:14 0.000306955
5 *142:10 0.000122917
6 *14861:A *187:31 6.26126e-05
7 *14925:A1 *14924:A2 9.75779e-05
8 *14925:A1 *14925:A2 9.27569e-05
9 *14925:A1 *14930:A2 0.000184494
10 *14925:A1 *14930:B1 0.000306241
11 *14925:A1 *185:16 7.43025e-06
12 *14925:A1 *187:31 2.04243e-05
13 *142:10 *143:8 0.000138727
14 *142:10 *148:10 5.3304e-05
15 *142:10 *200:8 1.01436e-05
16 *142:14 *14930:A2 0
17 *140:12 *142:10 3.71198e-05
*RES
1 *14860:X *142:10 40.5271 
2 *142:10 *142:14 15.4971 
3 *142:14 *14925:A1 29.8771 
4 *142:14 *14861:A 24.74 
*END

*D_NET *143 0.00144003
*CONN
*I *14863:B1 I *D sky130_fd_sc_hd__a21oi_1
*I *14862:C I *D sky130_fd_sc_hd__and3_1
*I *14928:B1 I *D sky130_fd_sc_hd__a31o_1
*I *14861:Y O *D sky130_fd_sc_hd__inv_2
*CAP
1 *14863:B1 2.76125e-05
2 *14862:C 3.51069e-05
3 *14928:B1 0
4 *14861:Y 0.000262103
5 *143:17 0.000101242
6 *143:10 3.8523e-05
7 *143:8 0.000262103
8 *143:8 *144:8 0
9 *143:8 *147:75 0
10 *14863:A1 *14862:C 2.66989e-05
11 *14863:A1 *14863:B1 4.98966e-05
12 *14863:A1 *143:17 2.9938e-05
13 *14863:A2 *14863:B1 0.000144147
14 *14928:A2 *14862:C 0
15 *136:12 *143:8 0
16 *136:34 *143:17 8.1796e-05
17 *137:48 *14863:B1 1.32314e-05
18 *137:48 *143:17 0.000228909
19 *142:10 *143:8 0.000138727
*RES
1 *14861:Y *143:8 42.7229 
2 *143:8 *143:10 15 
3 *143:10 *14928:B1 23 
4 *143:10 *143:17 2.52714 
5 *143:17 *14862:C 24.0771 
6 *143:17 *14863:B1 25.0714 
*END

*D_NET *144 0.000403685
*CONN
*I *14866:A1 I *D sky130_fd_sc_hd__o21a_1
*I *14862:X O *D sky130_fd_sc_hd__and3_1
*CAP
1 *14866:A1 2.3577e-05
2 *14862:X 9.43905e-05
3 *144:8 0.000117967
4 *14866:A1 *14866:A2 2.64616e-05
5 *14866:A1 *147:75 5.50106e-05
6 *144:8 *145:8 8.62783e-05
7 *144:8 *148:36 0
8 *143:8 *144:8 0
*RES
1 *14862:X *144:8 39.9057 
2 *144:8 *14866:A1 38.6214 
*END

*D_NET *145 0.000340472
*CONN
*I *14866:A2 I *D sky130_fd_sc_hd__o21a_1
*I *14863:Y O *D sky130_fd_sc_hd__a21oi_1
*CAP
1 *14866:A2 5.43738e-05
2 *14863:Y 5.94923e-05
3 *145:8 0.000113866
4 *145:8 *148:36 0
5 *14866:A1 *14866:A2 2.64616e-05
6 *144:8 *145:8 8.62783e-05
*RES
1 *14863:Y *145:8 39.2014 
2 *145:8 *14866:A2 38.6214 
*END

*D_NET *146 0.000174453
*CONN
*I *14865:A I *D sky130_fd_sc_hd__clkbuf_4
*I *14864:X O *D sky130_fd_sc_hd__and2_1
*CAP
1 *14865:A 6.09343e-05
2 *14864:X 6.09343e-05
3 *14865:A *14864:B 2.93747e-05
4 *14865:A *260:14 2.32101e-05
*RES
1 *14864:X *14865:A 47.0979 
*END

*D_NET *147 0.025148
*CONN
*I *14898:A1 I *D sky130_fd_sc_hd__a21o_1
*I *14900:A2 I *D sky130_fd_sc_hd__a21oi_1
*I *14907:A2 I *D sky130_fd_sc_hd__a211o_1
*I *14890:A1 I *D sky130_fd_sc_hd__a211o_1
*I *14870:A I *D sky130_fd_sc_hd__and3_1
*I *14866:B1 I *D sky130_fd_sc_hd__o21a_1
*I *14878:C1 I *D sky130_fd_sc_hd__o311a_1
*I *14883:A1 I *D sky130_fd_sc_hd__a311o_2
*I *14935:B1 I *D sky130_fd_sc_hd__a21o_1
*I *14865:X O *D sky130_fd_sc_hd__clkbuf_4
*CAP
1 *14898:A1 0.000206438
2 *14900:A2 0
3 *14907:A2 2.00578e-05
4 *14890:A1 3.16101e-05
5 *14870:A 0
6 *14866:B1 0
7 *14878:C1 7.29571e-05
8 *14883:A1 2.26838e-05
9 *14935:B1 0.000677964
10 *14865:X 0.000345639
11 *147:129 0.000395201
12 *147:114 0.000998548
13 *147:106 0.00188292
14 *147:93 0.00220452
15 *147:75 0.00108548
16 *147:69 0.00172263
17 *147:67 0.00114749
18 *147:61 0.000917145
19 *147:42 0.00109971
20 *147:40 0.00189182
21 *147:27 0.000665146
22 *147:12 0.00112828
23 *147:10 0.000345639
24 *14890:A1 *14890:A2 1.14154e-05
25 *14890:A1 *261:30 1.37232e-05
26 *14898:A1 *14893:A1 0
27 *14898:A1 *171:10 8.62876e-05
28 *14935:B1 *14935:A1 0.000481024
29 *14935:B1 *14935:A2 5.90675e-06
30 *14935:B1 *180:22 2.11856e-05
31 *14935:B1 *180:36 6.89881e-05
32 *147:10 *260:14 0.000185322
33 *147:27 *167:14 0.000104089
34 *147:27 *180:22 0.000622873
35 *147:40 *180:22 0.000389777
36 *147:61 *157:8 0.000135249
37 *147:61 *224:22 0.000135526
38 *147:69 *151:8 0
39 *147:75 *148:36 0.000185428
40 *147:93 *14887:B 5.47927e-05
41 *147:93 *14890:A2 4.75206e-05
42 *147:93 *261:30 0.000182826
43 *147:106 *14890:A2 1.40958e-05
44 *147:106 *180:16 1.36806e-05
45 *147:106 *223:53 0
46 *147:106 *229:40 0
47 *147:106 *229:112 0
48 *147:106 *231:127 0
49 *147:114 *14893:A1 0.000228909
50 *147:129 *14907:A1 5.50049e-05
51 *147:129 *239:139 0
52 *147:129 *241:27 0.000125013
53 *14847:A1 *147:61 8.4047e-05
54 *14847:A2 *14878:C1 2.35118e-06
55 *14853:A *147:75 0
56 *14866:A1 *147:75 5.50106e-05
57 *14878:A1 *147:61 0.000165617
58 *14881:B1 *147:93 3.3577e-05
59 *14893:B1 *147:114 0.000272383
60 *14907:C1 *14907:A2 0
61 *14907:C1 *147:114 0.000263664
62 *14907:C1 *147:129 6.07175e-05
63 *14919:B1 *147:93 4.07715e-05
64 *14920:A1 *147:42 0.000587021
65 *14923:C1 *147:75 0
66 *15022:RESET_B *147:67 0.000742789
67 *96:22 *14878:C1 5.5792e-05
68 *96:22 *147:61 0.000228233
69 *103:14 *14878:C1 1.76977e-05
70 *103:14 *147:42 0.000230439
71 *103:14 *147:93 4.31263e-05
72 *105:42 *147:106 0.000272383
73 *112:10 *14898:A1 6.57811e-05
74 *112:10 *147:106 2.46933e-05
75 *112:23 *14898:A1 0.000140958
76 *113:42 *147:129 0
77 *114:20 *147:114 0.000180212
78 *119:22 *147:93 2.4754e-05
79 *119:30 *147:93 0.00016148
80 *119:41 *147:42 0.000243307
81 *119:41 *147:93 9.85378e-05
82 *119:45 *147:42 0.000240426
83 *121:27 *14883:A1 5.12055e-06
84 *121:27 *147:27 9.03221e-05
85 *121:27 *147:40 9.87455e-05
86 *121:37 *147:42 9.38233e-05
87 *122:10 *147:42 2.55642e-05
88 *122:10 *147:93 0.000133316
89 *123:43 *147:93 1.12487e-05
90 *124:10 *14878:C1 1.142e-05
91 *124:10 *147:42 0.000248955
92 *124:10 *147:61 2.23754e-05
93 *129:10 *147:61 4.08537e-05
94 *134:10 *147:75 0
95 *143:8 *147:75 0
*RES
1 *14865:X *147:10 43.6964 
2 *147:10 *147:12 15 
3 *147:12 *14935:B1 33.9164 
4 *147:12 *147:27 12.5321 
5 *147:27 *14883:A1 23.4971 
6 *147:27 *147:40 19.93 
7 *147:40 *147:42 19.5129 
8 *147:42 *14878:C1 39.4707 
9 *147:42 *147:61 38.3064 
10 *147:61 *147:67 38.2443 
11 *147:67 *147:69 11.7657 
12 *147:69 *147:75 34.4507 
13 *147:75 *14866:B1 23 
14 *147:69 *14870:A 38 
15 *147:40 *147:93 32.2757 
16 *147:93 *14890:A1 23.8493 
17 *147:93 *147:106 33.3114 
18 *147:106 *147:114 27.6979 
19 *147:114 *14907:A2 23.4971 
20 *147:114 *147:129 37.9543 
21 *147:129 *14900:A2 23 
22 *147:106 *14898:A1 42.3707 
*END

*D_NET *148 0.00896317
*CONN
*I *14916:A3 I *D sky130_fd_sc_hd__o31a_1
*I *14867:B I *D sky130_fd_sc_hd__or2_1
*I *14941:A4 I *D sky130_fd_sc_hd__o41a_1
*I *14913:A3 I *D sky130_fd_sc_hd__o41ai_1
*I *14866:X O *D sky130_fd_sc_hd__o21a_1
*CAP
1 *14916:A3 0.000164317
2 *14867:B 0.000196263
3 *14941:A4 0.00025173
4 *14913:A3 4.11105e-05
5 *14866:X 0
6 *148:36 0.000882862
7 *148:10 0.00205574
8 *148:4 0.00228518
9 *14867:B *14915:B 0
10 *14867:B *14916:A2 0
11 *14867:B *180:125 0
12 *14913:A3 *14913:A4 9.41704e-05
13 *14913:A3 *180:150 9.41704e-05
14 *14916:A3 *14916:A2 0.000359332
15 *14941:A4 *238:112 0.000180218
16 *14941:A4 *238:120 0.000231212
17 *14941:A4 *238:131 3.70187e-05
18 *148:10 *155:10 0
19 *148:10 *175:8 0.000443673
20 *148:10 *238:120 0.000382564
21 *148:36 *14915:B 0
22 *14859:A *148:10 7.74585e-05
23 *14860:B *148:10 0.000139352
24 *138:8 *14941:A4 0.000238194
25 *139:19 *148:10 0.000443679
26 *140:6 *148:10 0.0001262
27 *142:10 *148:10 5.3304e-05
28 *144:8 *148:36 0
29 *145:8 *148:36 0
30 *147:75 *148:36 0.000185428
*RES
1 *14866:X *148:4 23 
2 *148:4 *148:10 49.2821 
3 *148:10 *14913:A3 39.0979 
4 *148:10 *14941:A4 43.7171 
5 *148:4 *148:36 24.3007 
6 *148:36 *14867:B 41.3143 
7 *148:36 *14916:A3 41.9564 
*END

*D_NET *149 0.00164724
*CONN
*I *14868:A I *D sky130_fd_sc_hd__clkbuf_1
*I *14867:X O *D sky130_fd_sc_hd__or2_1
*CAP
1 *14868:A 0
2 *14867:X 0.000524308
3 *149:10 0.000524308
4 *149:10 *14915:B 9.91895e-05
5 *149:10 *180:125 7.59964e-05
6 *149:10 *238:51 0.000382574
7 *82:8 *149:10 4.08641e-05
*RES
1 *14867:X *149:10 47.9843 
2 *149:10 *14868:A 38 
*END

*D_NET *150 0.000350161
*CONN
*I *14870:C I *D sky130_fd_sc_hd__and3_1
*I *14869:X O *D sky130_fd_sc_hd__or3_1
*CAP
1 *14870:C 0.000149077
2 *14869:X 0.000149077
3 *14870:B *14870:C 5.20072e-05
*RES
1 *14869:X *14870:C 48.1336 
*END

*D_NET *151 0.00405845
*CONN
*I *14911:A I *D sky130_fd_sc_hd__or4_1
*I *14871:B1 I *D sky130_fd_sc_hd__a21o_1
*I *14942:A I *D sky130_fd_sc_hd__or3b_1
*I *14870:X O *D sky130_fd_sc_hd__and3_1
*CAP
1 *14911:A 0
2 *14871:B1 9.60997e-05
3 *14942:A 0
4 *14870:X 0.000110804
5 *151:28 0.000119012
6 *151:22 0.00058701
7 *151:12 0.000736098
8 *151:8 0.000475004
9 *14871:B1 *14871:A2 8.43466e-05
10 *14871:B1 *247:8 8.6949e-05
11 *14871:B1 *247:14 0.000139357
12 *151:12 *178:37 0.000876722
13 *151:22 *14871:A2 0.000137651
14 *151:22 *14911:B 3.7282e-05
15 *151:22 *176:10 0.000104482
16 *151:22 *185:10 4.334e-05
17 *151:22 *229:61 0
18 *151:22 *247:14 9.67842e-05
19 *151:28 *205:83 0.000137153
20 *151:28 *247:14 0.000133645
21 *14902:B *151:22 5.67058e-05
22 *147:69 *151:8 0
*RES
1 *14870:X *151:8 39.9057 
2 *151:8 *151:12 24.6736 
3 *151:12 *151:22 37.3121 
4 *151:22 *151:28 33.6664 
5 *151:28 *14942:A 23 
6 *151:22 *14871:B1 26.0243 
7 *151:12 *14911:A 23 
*END

*D_NET *152 0.00746931
*CONN
*I *14873:A2 I *D sky130_fd_sc_hd__a21o_1
*I *14918:B1 I *D sky130_fd_sc_hd__o211a_1
*I *14872:Y O *D sky130_fd_sc_hd__o211ai_2
*CAP
1 *14873:A2 0
2 *14918:B1 0
3 *14872:Y 0.000128987
4 *152:18 0.000916789
5 *152:10 0.00142317
6 *152:8 0.000635368
7 *152:10 *161:10 0.000836645
8 *152:10 *193:12 4.7088e-05
9 *152:18 *14918:A1 0
10 *152:18 *177:25 0
11 *152:18 *189:8 0
12 *152:18 *195:10 0
13 *14872:A1 *152:8 6.17437e-06
14 *14874:A *152:18 0.000191148
15 *14874:B *152:10 0.000176541
16 *14874:B *152:18 0.000239496
17 *14917:A2 *152:18 0
18 *92:21 *152:10 0.000187986
19 *92:21 *152:18 5.46706e-05
20 *96:22 *152:10 0.000268153
21 *98:10 *152:18 0
22 *103:14 *152:10 0.00130686
23 *103:33 *152:18 0.00103779
24 *119:64 *152:8 1.24376e-05
*RES
1 *14872:Y *152:8 39.5743 
2 *152:8 *152:10 20.2171 
3 *152:10 *152:18 38.4486 
4 *152:18 *14918:B1 23 
5 *152:10 *14873:A2 38 
*END

*D_NET *153 0.00172259
*CONN
*I *14878:B1 I *D sky130_fd_sc_hd__o311a_1
*I *14876:A1 I *D sky130_fd_sc_hd__a211oi_1
*I *14873:X O *D sky130_fd_sc_hd__a21o_1
*CAP
1 *14878:B1 0.000188066
2 *14876:A1 0.000369243
3 *14873:X 5.76958e-05
4 *153:8 0.000615005
5 *14876:A1 *255:52 2.17486e-05
6 *14815:A *14876:A1 2.43944e-05
7 *14815:B *14876:A1 2.64616e-05
8 *14822:A *14876:A1 1.41077e-05
9 *14847:A1 *14878:B1 2.5415e-05
10 *14847:A2 *14878:B1 0.000165286
11 *14847:B1 *14876:A1 9.84794e-05
12 *14878:A1 *14878:B1 2.14474e-05
13 *103:14 *14878:B1 1.02387e-05
14 *103:18 *14878:B1 9.21347e-06
15 *103:18 *153:8 2.01531e-05
16 *129:10 *14878:B1 4.6318e-06
17 *129:10 *153:8 4.08537e-05
18 *129:22 *153:8 1.01436e-05
*RES
1 *14873:X *153:8 39.2014 
2 *153:8 *14876:A1 42.4329 
3 *153:8 *14878:B1 42.1636 
*END

*D_NET *154 0.00109537
*CONN
*I *14876:A2 I *D sky130_fd_sc_hd__a211oi_1
*I *14874:Y O *D sky130_fd_sc_hd__nor2_1
*CAP
1 *14876:A2 0
2 *14874:Y 0.000221284
3 *154:10 0.000221284
4 *154:10 *193:12 0.000162422
5 *154:10 *237:23 0.000319731
6 *14874:B *154:10 3.46954e-05
7 *98:8 *154:10 4.9662e-05
8 *103:33 *154:10 8.62876e-05
*RES
1 *14874:Y *154:10 43.4686 
2 *154:10 *14876:A2 38 
*END

*D_NET *155 0.00889977
*CONN
*I *14876:C1 I *D sky130_fd_sc_hd__a211oi_1
*I *14932:A1_N I *D sky130_fd_sc_hd__a2bb2o_1
*I *14926:A1_N I *D sky130_fd_sc_hd__a2bb2o_1
*I *14875:Y O *D sky130_fd_sc_hd__nand2_1
*CAP
1 *14876:C1 0
2 *14932:A1_N 0.000257022
3 *14926:A1_N 0
4 *14875:Y 0.000441889
5 *155:34 0.000427996
6 *155:12 0.000257022
7 *155:10 0.0017393
8 *155:8 0.00260919
9 *14932:A1_N *180:91 7.59794e-05
10 *14932:A1_N *197:16 7.65917e-05
11 *155:8 *234:12 0
12 *155:8 *260:33 0.000391767
13 *155:10 *175:58 0.000130158
14 *155:10 *178:18 0
15 *155:10 *180:52 0
16 *155:10 *180:69 0.000383503
17 *155:10 *180:80 0
18 *155:10 *180:84 0
19 *155:10 *234:12 0
20 *155:10 *238:120 0
21 *155:10 *255:38 0
22 *155:10 *260:33 0.000212712
23 *155:10 *260:61 0.000462799
24 *155:10 *267:55 0
25 *155:34 *14877:A2 0.000182826
26 *155:34 *156:6 0.000310647
27 *155:34 *178:18 0.00016457
28 *155:34 *234:8 0.00044458
29 *155:34 *236:52 7.42621e-05
30 *155:34 *255:52 0.000185434
31 *89:10 *155:34 5.12328e-05
32 *97:12 *155:34 2.02872e-05
33 *148:10 *155:10 0
*RES
1 *14875:Y *155:8 48.7093 
2 *155:8 *155:10 36.4157 
3 *155:10 *155:12 15 
4 *155:12 *14926:A1_N 23 
5 *155:12 *14932:A1_N 27.9507 
6 *155:8 *155:34 28.5057 
7 *155:34 *14876:C1 23 
*END

*D_NET *156 0.00200577
*CONN
*I *14904:A2 I *D sky130_fd_sc_hd__a211o_1
*I *14877:A2 I *D sky130_fd_sc_hd__a21o_1
*I *14876:Y O *D sky130_fd_sc_hd__a211oi_1
*CAP
1 *14904:A2 0
2 *14877:A2 4.31643e-05
3 *14876:Y 9.69851e-05
4 *156:19 0.000267333
5 *156:6 0.000407482
6 *14877:A2 *236:52 0.000182826
7 *156:6 *236:52 0.000209554
8 *156:19 *229:14 0.00011659
9 *156:19 *229:20 1.44546e-05
10 *156:19 *246:8 6.16439e-05
11 *14816:B1 *156:19 1.02387e-05
12 *14904:A1 *156:19 1.27321e-05
13 *97:12 *156:19 1.34354e-05
14 *97:14 *156:19 7.58577e-05
15 *155:34 *14877:A2 0.000182826
16 *155:34 *156:6 0.000310647
*RES
1 *14876:Y *156:6 26.48 
2 *156:6 *14877:A2 25.0507 
3 *156:6 *156:19 35.7793 
4 *156:19 *14904:A2 23 
*END

*D_NET *157 0.00632807
*CONN
*I *14879:B I *D sky130_fd_sc_hd__or2_1
*I *14910:A I *D sky130_fd_sc_hd__or4_1
*I *14946:A I *D sky130_fd_sc_hd__or3b_1
*I *14878:X O *D sky130_fd_sc_hd__o311a_1
*CAP
1 *14879:B 0
2 *14910:A 0.00014928
3 *14946:A 0
4 *14878:X 6.61579e-05
5 *157:28 0.000313862
6 *157:24 0.000372758
7 *157:16 0.000927343
8 *157:8 0.000785325
9 *14910:A *179:14 5.202e-05
10 *14910:A *184:12 0.000164392
11 *14910:A *245:14 5.5792e-05
12 *157:8 *224:22 0.000135249
13 *157:16 *14811:B 0
14 *157:16 *231:131 1.94693e-05
15 *157:16 *255:52 0.00165799
16 *157:24 *220:51 5.67058e-05
17 *157:24 *229:61 0
18 *157:24 *231:135 0
19 *157:28 *179:14 1.85495e-05
20 *157:28 *184:12 0.000378785
21 *157:28 *224:54 8.41996e-05
22 *14846:A *157:16 0.000270682
23 *14847:B1 *157:16 4.9662e-05
24 *14879:A *157:24 0.000437786
25 *65:8 *157:24 0.000167421
26 *128:6 *157:16 2.93845e-05
27 *147:61 *157:8 0.000135249
*RES
1 *14878:X *157:8 39.9057 
2 *157:8 *157:16 36.025 
3 *157:16 *157:24 35.9864 
4 *157:24 *157:28 20.075 
5 *157:28 *14946:A 38 
6 *157:28 *14910:A 41.5836 
7 *157:24 *14879:B 23 
*END

*D_NET *158 0.00244845
*CONN
*I *14880:A I *D sky130_fd_sc_hd__clkbuf_1
*I *14879:X O *D sky130_fd_sc_hd__or2_1
*CAP
1 *14880:A 0.000327262
2 *14879:X 0.000392439
3 *158:8 0.000719701
4 *158:8 *184:12 0.000125712
5 *158:8 *205:75 0.00044506
6 *158:8 *205:77 0.000214513
7 *158:8 *205:83 0.000135547
8 *158:8 *209:8 8.82119e-05
*RES
1 *14879:X *158:8 48.7093 
2 *158:8 *14880:A 43.8621 
*END

*D_NET *159 0.000404137
*CONN
*I *14883:A2 I *D sky130_fd_sc_hd__a311o_2
*I *14881:Y O *D sky130_fd_sc_hd__o21ai_1
*CAP
1 *14883:A2 0
2 *14881:Y 0.00012081
3 *159:8 0.00012081
4 *159:8 *160:8 1.05441e-05
5 *14881:A1 *159:8 7.3595e-05
6 *100:29 *159:8 7.8377e-05
*RES
1 *14881:Y *159:8 40.2579 
2 *159:8 *14883:A2 38 
*END

*D_NET *160 0.000332753
*CONN
*I *14883:A3 I *D sky130_fd_sc_hd__a311o_2
*I *14882:X O *D sky130_fd_sc_hd__or3_1
*CAP
1 *14883:A3 0
2 *14882:X 9.24832e-05
3 *160:8 9.24832e-05
4 *160:8 *237:12 0
5 *14881:A1 *160:8 0.000137242
6 *159:8 *160:8 1.05441e-05
*RES
1 *14882:X *160:8 39.9057 
2 *160:8 *14883:A3 38 
*END

*D_NET *161 0.0174495
*CONN
*I *14948:A1 I *D sky130_fd_sc_hd__mux2_1
*I *14884:A1 I *D sky130_fd_sc_hd__mux2_1
*I *14910:B I *D sky130_fd_sc_hd__or4_1
*I *14883:X O *D sky130_fd_sc_hd__a311o_2
*CAP
1 *14948:A1 0.000460121
2 *14884:A1 0
3 *14910:B 0
4 *14883:X 0
5 *161:29 0.000952372
6 *161:19 0.0028207
7 *161:12 0.00209928
8 *161:10 0.00265398
9 *161:6 0.00196291
10 *14948:A1 *14948:A0 9.30054e-05
11 *14948:A1 *14949:A 0
12 *14948:A1 *221:40 2.18409e-05
13 *14948:A1 *268:12 0.000195578
14 *14948:A1 *268:20 0
15 *161:10 *237:12 0
16 *161:10 *237:23 0.000100944
17 *161:12 *14843:A1 0.000181868
18 *161:12 *183:20 7.61229e-06
19 *161:12 *193:20 6.16686e-05
20 *161:12 *245:14 2.57057e-05
21 *161:19 *14823:A 1.38245e-05
22 *161:19 *14823:B 0.000159643
23 *161:19 *14828:C 0.000100778
24 *161:19 *223:26 0.000114764
25 *161:19 *230:25 4.07715e-05
26 *161:19 *232:21 0.000289973
27 *161:19 *268:20 0
28 *161:29 *174:50 0.000663648
29 *161:29 *205:50 0.000817057
30 *161:29 *205:63 0.000670268
31 *161:29 *239:122 2.32101e-05
32 *161:29 *244:14 5.50106e-05
33 *161:29 *244:20 0.000140259
34 *14872:A1 *161:10 8.62783e-05
35 *14881:A1 *161:10 0.000222123
36 *14881:A1 *161:19 0.000276128
37 *14919:B1 *161:19 0
38 *93:23 *161:12 2.64616e-05
39 *93:35 *161:12 0.000121803
40 *100:8 *161:19 0.000709307
41 *100:16 *161:19 7.81176e-05
42 *103:14 *161:10 0.000152553
43 *103:14 *161:19 0.000213275
44 *121:10 *161:19 0
45 *152:10 *161:10 0.000836645
*RES
1 *14883:X *161:6 38 
2 *161:6 *161:10 30.2871 
3 *161:10 *161:12 27.3014 
4 *161:12 *14910:B 23 
5 *161:6 *161:19 34.655 
6 *161:19 *161:29 42.9643 
7 *161:29 *14884:A1 23 
8 *161:19 *14948:A1 46.3893 
*END

*D_NET *162 0.000365779
*CONN
*I *14885:A I *D sky130_fd_sc_hd__clkbuf_1
*I *14884:X O *D sky130_fd_sc_hd__mux2_1
*CAP
1 *14885:A 7.35678e-05
2 *14884:X 6.50624e-05
3 *162:8 0.00013863
4 *162:8 *174:50 0
5 *162:8 *244:20 8.85189e-05
*RES
1 *14884:X *162:8 39.2014 
2 *162:8 *14885:A 39.4707 
*END

*D_NET *163 0.00167612
*CONN
*I *14919:C1 I *D sky130_fd_sc_hd__a211oi_1
*I *14887:B I *D sky130_fd_sc_hd__xor2_1
*I *14886:Y O *D sky130_fd_sc_hd__xnor2_1
*CAP
1 *14919:C1 0.000117212
2 *14887:B 3.43764e-05
3 *14886:Y 0.000263659
4 *163:10 0.000415247
5 *14919:C1 *166:10 0
6 *14919:C1 *169:14 4.21594e-06
7 *14919:C1 *191:14 0.000185095
8 *14919:C1 *261:30 0
9 *163:10 *191:14 0.000341204
10 *163:10 *267:48 6.16531e-05
11 *105:12 *14919:C1 0
12 *106:8 *163:10 0
13 *106:14 *163:10 5.67058e-05
14 *119:22 *14919:C1 0
15 *119:30 *14887:B 0.00014196
16 *147:93 *14887:B 5.47927e-05
*RES
1 *14886:Y *163:10 43.3443 
2 *163:10 *14887:B 39.5743 
3 *163:10 *14919:C1 40.9621 
*END

*D_NET *164 0.000465493
*CONN
*I *14890:A2 I *D sky130_fd_sc_hd__a211o_1
*I *14887:X O *D sky130_fd_sc_hd__xor2_1
*CAP
1 *14890:A2 9.75738e-05
2 *14887:X 9.75738e-05
3 *14890:A2 *167:14 6.82416e-05
4 *14890:A2 *180:16 9.67842e-05
5 *14890:A2 *261:30 3.22879e-05
6 *14890:A1 *14890:A2 1.14154e-05
7 *147:93 *14890:A2 4.75206e-05
8 *147:106 *14890:A2 1.40958e-05
*RES
1 *14887:X *14890:A2 49.0243 
*END

*D_NET *165 0.00317915
*CONN
*I *14889:B1 I *D sky130_fd_sc_hd__a21o_1
*I *14920:A2 I *D sky130_fd_sc_hd__a211o_1
*I *14888:Y O *D sky130_fd_sc_hd__nor2_1
*CAP
1 *14889:B1 0.000199213
2 *14920:A2 0.000371481
3 *14888:Y 0.000381742
4 *165:8 0.000952437
5 *14889:B1 *191:14 0.000127662
6 *14889:B1 *243:24 5.50106e-05
7 *14920:A2 *191:14 0.000178946
8 *14920:A2 *224:35 0
9 *14826:B *165:8 0.000400204
10 *105:25 *14889:B1 5.50106e-05
11 *107:16 *165:8 9.90162e-05
12 *108:45 *14889:B1 0
13 *108:45 *14920:A2 0
14 *119:64 *14920:A2 0
15 *125:48 *14920:A2 0.000358425
*RES
1 *14888:Y *165:8 44.3386 
2 *165:8 *14920:A2 46.6793 
3 *165:8 *14889:B1 42.2879 
*END

*D_NET *166 0.00140504
*CONN
*I *14890:B1 I *D sky130_fd_sc_hd__a211o_1
*I *14889:X O *D sky130_fd_sc_hd__a21o_1
*CAP
1 *14890:B1 0
2 *14889:X 0.000415437
3 *166:10 0.000415437
4 *166:10 *180:16 0.000110922
5 *166:10 *180:22 0.000446281
6 *166:10 *223:53 1.69668e-05
7 *14919:C1 *166:10 0
*RES
1 *14889:X *166:10 45.1671 
2 *166:10 *14890:B1 38 
*END

*D_NET *167 0.0100586
*CONN
*I *14909:B I *D sky130_fd_sc_hd__or4_1
*I *14891:A2 I *D sky130_fd_sc_hd__a21bo_1
*I *14950:A1 I *D sky130_fd_sc_hd__mux2_1
*I *14890:X O *D sky130_fd_sc_hd__a211o_1
*CAP
1 *14909:B 0
2 *14891:A2 0
3 *14950:A1 0.000116885
4 *14890:X 0
5 *167:47 0.000256622
6 *167:35 0.00093828
7 *167:14 0.00285023
8 *167:4 0.003415
9 *14950:A1 *205:42 0.000120999
10 *14950:A1 *267:31 2.93845e-05
11 *167:14 *180:16 0.000178517
12 *167:14 *243:24 9.86551e-06
13 *167:14 *261:30 2.25419e-05
14 *167:35 *14909:A 6.48671e-05
15 *167:35 *180:16 0.000887236
16 *167:47 *14825:B 0
17 *167:47 *183:20 8.85189e-05
18 *167:47 *243:12 9.04525e-05
19 *14890:A2 *167:14 6.82416e-05
20 *37:31 *14950:A1 0.000119046
21 *105:12 *167:14 5.012e-05
22 *113:42 *167:47 0
23 *119:22 *167:14 3.53115e-05
24 *119:30 *167:14 0.000612366
25 *123:8 *167:14 0
26 *123:43 *167:14 0
27 *147:27 *167:14 0.000104089
*RES
1 *14890:X *167:4 23 
2 *167:4 *167:14 42.0966 
3 *167:14 *14950:A1 48.3511 
4 *167:4 *167:35 12.2421 
5 *167:35 *167:47 35.1993 
6 *167:47 *14891:A2 23 
7 *167:35 *14909:B 23 
*END

*D_NET *168 0.0031192
*CONN
*I *14894:B1 I *D sky130_fd_sc_hd__o211ai_1
*I *14893:A1 I *D sky130_fd_sc_hd__a211o_1
*I *14892:X O *D sky130_fd_sc_hd__or3_1
*CAP
1 *14894:B1 3.44709e-05
2 *14893:A1 0.000515138
3 *14892:X 0.000410029
4 *168:10 0.000959638
5 *14893:A1 *170:8 8.85189e-05
6 *14893:A1 *174:18 6.16531e-05
7 *14893:A1 *174:50 1.14452e-05
8 *14893:A1 *231:125 2.24608e-05
9 *14893:A1 *231:127 2.10968e-05
10 *14894:B1 *174:18 1.72202e-05
11 *14894:B1 *231:119 5.3304e-05
12 *168:10 *173:10 0.000272377
13 *168:10 *174:50 0.000124102
14 *14893:B1 *14893:A1 2.02517e-05
15 *14894:C1 *14894:B1 0.000196965
16 *14898:A1 *14893:A1 0
17 *112:23 *14893:A1 0
18 *115:8 *14893:A1 8.16253e-05
19 *147:114 *14893:A1 0.000228909
*RES
1 *14892:X *168:10 44.3386 
2 *168:10 *14893:A1 47.7564 
3 *168:10 *14894:B1 39.5743 
*END

*D_NET *169 0.00324328
*CONN
*I *14895:A I *D sky130_fd_sc_hd__nand2_1
*I *14919:A1 I *D sky130_fd_sc_hd__a211oi_1
*I *14893:X O *D sky130_fd_sc_hd__a211o_1
*CAP
1 *14895:A 0
2 *14919:A1 0
3 *14893:X 8.88865e-05
4 *169:25 0.000150135
5 *169:14 0.000647721
6 *169:6 0.000886743
7 *169:14 *172:12 0.000922688
8 *169:25 *14830:A2 3.97502e-05
9 *169:25 *223:53 4.96264e-05
10 *169:25 *261:22 0
11 *14919:C1 *169:14 4.21594e-06
12 *105:12 *169:14 0
13 *117:12 *169:25 0
14 *119:16 *169:6 0.000226306
15 *119:16 *169:14 0.000227208
*RES
1 *14893:X *169:6 25.5271 
2 *169:6 *169:14 46.0743 
3 *169:14 *14919:A1 23 
4 *169:6 *169:25 32.61 
5 *169:25 *14895:A 23 
*END

*D_NET *170 0.00141925
*CONN
*I *14895:B I *D sky130_fd_sc_hd__nand2_1
*I *14894:Y O *D sky130_fd_sc_hd__o211ai_1
*CAP
1 *14895:B 0.000303822
2 *14894:Y 4.63418e-05
3 *170:8 0.000350164
4 *14895:B *171:10 0.000313255
5 *170:8 *231:127 4.334e-05
6 *14837:B1 *14895:B 0.000173452
7 *14837:B2 *14895:B 8.26285e-05
8 *14893:A1 *170:8 8.85189e-05
9 *14896:A1 *14895:B 1.37232e-05
10 *111:25 *14895:B 4.00259e-06
*RES
1 *14894:Y *170:8 39.2014 
2 *170:8 *14895:B 45.8093 
*END

*D_NET *171 0.00114917
*CONN
*I *14898:A2 I *D sky130_fd_sc_hd__a21o_1
*I *14895:Y O *D sky130_fd_sc_hd__nand2_1
*CAP
1 *14898:A2 0
2 *14895:Y 0.000320489
3 *171:10 0.000320489
4 *14837:B1 *171:10 1.57571e-05
5 *14895:B *171:10 0.000313255
6 *14898:A1 *171:10 8.62876e-05
7 *112:10 *171:10 6.68793e-05
8 *112:23 *171:10 2.60152e-05
*RES
1 *14895:Y *171:10 43.8621 
2 *171:10 *14898:A2 38 
*END

*D_NET *172 0.00415393
*CONN
*I *14897:B_N I *D sky130_fd_sc_hd__or2b_1
*I *14919:A2 I *D sky130_fd_sc_hd__a211oi_1
*I *14896:X O *D sky130_fd_sc_hd__o21ba_1
*CAP
1 *14897:B_N 0.000436112
2 *14919:A2 0
3 *14896:X 4.25104e-05
4 *172:12 0.000302001
5 *172:8 0.000780623
6 *14897:B_N *242:24 0.000216712
7 *14897:B_N *261:18 2.24608e-05
8 *14897:B_N *261:22 8.4047e-05
9 *172:8 *223:47 5.50049e-05
10 *172:12 *261:22 0.000340163
11 *172:12 *261:30 0.000684234
12 *14892:A *14897:B_N 0
13 *14892:C *14897:B_N 1.14154e-05
14 *109:22 *14897:B_N 7.90568e-05
15 *110:10 *14897:B_N 1.14452e-05
16 *110:16 *14897:B_N 5.80071e-05
17 *117:12 *14897:B_N 0.000107452
18 *169:14 *172:12 0.000922688
*RES
1 *14896:X *172:8 38.6214 
2 *172:8 *172:12 28.5264 
3 *172:12 *14919:A2 23 
4 *172:8 *14897:B_N 47.4043 
*END

*D_NET *173 0.00121531
*CONN
*I *14898:B1 I *D sky130_fd_sc_hd__a21o_1
*I *14897:X O *D sky130_fd_sc_hd__or2b_1
*CAP
1 *14898:B1 0
2 *14897:X 0.000329837
3 *173:10 0.000329837
4 *173:10 *174:18 1.83564e-05
5 *173:10 *174:50 7.10099e-05
6 *14892:A *173:10 0.00010018
7 *14892:B *173:10 5.67058e-05
8 *112:23 *173:10 3.70094e-05
9 *168:10 *173:10 0.000272377
*RES
1 *14897:X *173:10 45.9957 
2 *173:10 *14898:B1 38 
*END

*D_NET *174 0.00716143
*CONN
*I *14952:A1 I *D sky130_fd_sc_hd__mux2_1
*I *14899:A2 I *D sky130_fd_sc_hd__a21o_1
*I *14909:C I *D sky130_fd_sc_hd__or4_1
*I *14898:X O *D sky130_fd_sc_hd__a21o_1
*CAP
1 *14952:A1 0
2 *14899:A2 6.42265e-05
3 *14909:C 0
4 *14898:X 0
5 *174:50 0.000946681
6 *174:26 0.000732059
7 *174:18 0.00136207
8 *174:6 0.00151247
9 *174:18 *231:119 9.5877e-05
10 *174:18 *242:24 7.44161e-06
11 *174:18 *242:64 0.000181943
12 *174:26 *14836:B 0
13 *174:26 *183:20 1.58805e-05
14 *174:26 *231:127 0
15 *174:26 *242:64 0.000802321
16 *174:50 *244:20 0
17 *14893:A1 *174:18 6.16531e-05
18 *14893:A1 *174:50 1.14452e-05
19 *14894:A2 *174:18 4.9662e-05
20 *14894:B1 *174:18 1.72202e-05
21 *14894:C1 *174:18 9.58714e-05
22 *14899:A1 *14899:A2 1.59094e-05
23 *14899:B1 *14899:A2 5.64339e-05
24 *105:59 *174:26 0
25 *105:63 *174:26 9.35856e-05
26 *105:76 *174:26 3.72357e-05
27 *112:23 *174:18 7.76364e-06
28 *113:38 *174:18 9.5877e-05
29 *113:42 *174:18 0
30 *113:42 *174:26 0
31 *114:10 *174:18 2.06822e-05
32 *161:29 *174:50 0.000663648
33 *162:8 *174:50 0
34 *168:10 *174:50 0.000124102
35 *173:10 *174:18 1.83564e-05
36 *173:10 *174:50 7.10099e-05
*RES
1 *14898:X *174:6 38 
2 *174:6 *174:18 39.8186 
3 *174:18 *174:26 32.5864 
4 *174:26 *14909:C 23 
5 *174:18 *14899:A2 39.6157 
6 *174:6 *174:50 32.6486 
7 *174:50 *14952:A1 23 
*END

*D_NET *175 0.0100456
*CONN
*I *14924:A1 I *D sky130_fd_sc_hd__o21ai_1
*I *14941:A3 I *D sky130_fd_sc_hd__o41a_1
*I *14913:A2 I *D sky130_fd_sc_hd__o41ai_1
*I *14916:A2 I *D sky130_fd_sc_hd__o31a_1
*I *14901:Y O *D sky130_fd_sc_hd__nor2b_2
*CAP
1 *14924:A1 0
2 *14941:A3 0
3 *14913:A2 0.000173389
4 *14916:A2 0.000401435
5 *14901:Y 0.000296031
6 *175:58 0.000195363
7 *175:45 0.00135918
8 *175:35 0.00130299
9 *175:16 0.00142551
10 *175:8 0.00163267
11 *14913:A2 *14913:A4 0.000247641
12 *14916:A2 *14916:A1 5.50106e-05
13 *14916:A2 *14916:B1 2.32004e-05
14 *175:16 *14867:A 0.000576704
15 *175:16 *180:104 0.000109502
16 *175:16 *180:125 0.000144067
17 *175:16 *197:8 0
18 *175:16 *202:8 8.85189e-05
19 *175:16 *225:12 1.35676e-05
20 *175:16 *225:14 0
21 *175:16 *225:20 0
22 *175:16 *225:37 0.000314157
23 *175:35 *14924:A2 4.79498e-05
24 *175:35 *14925:C1 5.50106e-05
25 *175:35 *180:104 2.01531e-05
26 *175:35 *225:12 2.29192e-05
27 *175:45 *14913:A4 0.000352421
28 *175:45 *180:84 0.000169665
29 *175:45 *238:12 8.26569e-05
30 *175:58 *206:10 2.76611e-06
31 *14867:B *14916:A2 0
32 *14916:A3 *14916:A2 0.000359332
33 *138:8 *175:58 0
34 *148:10 *175:8 0.000443673
35 *155:10 *175:58 0.000130158
*RES
1 *14901:Y *175:8 42.9093 
2 *175:8 *175:16 48.3114 
3 *175:16 *14916:A2 46.5964 
4 *175:8 *175:35 20.0543 
5 *175:35 *175:45 48.27 
6 *175:45 *14913:A2 25.7654 
7 *175:45 *175:58 33.6664 
8 *175:58 *14941:A3 23 
9 *175:35 *14924:A1 23 
*END

*D_NET *176 0.00177773
*CONN
*I *14942:B I *D sky130_fd_sc_hd__or3b_1
*I *14911:B I *D sky130_fd_sc_hd__or4_1
*I *14902:X O *D sky130_fd_sc_hd__or2_1
*CAP
1 *14942:B 0.000294429
2 *14911:B 9.40952e-05
3 *14902:X 9.14567e-05
4 *176:10 0.000479981
5 *14911:B *231:135 0.000100892
6 *14942:B *14942:C_N 2.18409e-05
7 *14942:B *185:10 0
8 *14942:B *224:60 5.3304e-05
9 *14942:B *224:68 9.58714e-05
10 *14942:B *231:135 0.00023219
11 *14902:A *14942:B 0.000171906
12 *151:22 *14911:B 3.7282e-05
13 *151:22 *176:10 0.000104482
*RES
1 *14902:X *176:10 39.4189 
2 *176:10 *14911:B 40.7861 
3 *176:10 *14942:B 43.8104 
*END

*D_NET *177 0.00454691
*CONN
*I *14929:A2 I *D sky130_fd_sc_hd__o31ai_1
*I *14923:A2 I *D sky130_fd_sc_hd__o311a_1
*I *14904:C1 I *D sky130_fd_sc_hd__a211o_1
*I *14903:X O *D sky130_fd_sc_hd__and2b_1
*CAP
1 *14929:A2 0.000162915
2 *14923:A2 0.000118662
3 *14904:C1 0
4 *14903:X 0
5 *177:25 0.00126182
6 *177:12 0.000227121
7 *177:4 0.00120737
8 *14923:A2 *189:8 0.000116314
9 *14923:A2 *233:72 1.57571e-05
10 *177:12 *14816:A1 5.3304e-05
11 *177:12 *178:35 0.000144562
12 *177:12 *229:20 0
13 *177:12 *235:23 5.50049e-05
14 *177:12 *235:35 3.47781e-05
15 *177:25 *14903:B 0.00010718
16 *177:25 *194:10 0
17 *177:25 *224:22 0.000356559
18 *14816:B1 *177:12 6.7177e-06
19 *14917:A1 *177:25 7.66085e-05
20 *14917:A2 *177:25 0
21 *98:10 *177:25 0
22 *129:39 *177:25 0.000150888
23 *133:28 *14923:A2 2.64616e-05
24 *133:28 *177:25 1.47563e-05
25 *135:23 *177:25 5.01247e-05
26 *136:12 *177:25 0.000125758
27 *137:22 *14929:A2 5.75819e-05
28 *137:30 *14923:A2 0.000111852
29 *137:30 *177:25 6.48142e-05
30 *152:18 *177:25 0
*RES
1 *14903:X *177:4 23 
2 *177:4 *177:12 34.4121 
3 *177:12 *14904:C1 23 
4 *177:4 *177:25 35.6314 
5 *177:25 *14923:A2 40.6514 
6 *177:25 *14929:A2 39.8125 
*END

*D_NET *178 0.00934543
*CONN
*I *14911:C I *D sky130_fd_sc_hd__or4_1
*I *14944:A1 I *D sky130_fd_sc_hd__mux2_1
*I *14904:X O *D sky130_fd_sc_hd__a211o_1
*CAP
1 *14911:C 0
2 *14944:A1 0.000354033
3 *14904:X 0
4 *178:37 0.00144285
5 *178:35 0.00213632
6 *178:18 0.00110614
7 *178:4 0.00144557
8 *14944:A1 *14807:A 0.000271476
9 *14944:A1 *14807:B 1.94812e-05
10 *14944:A1 *14807:C 4.9356e-05
11 *14944:A1 *234:8 0.000171898
12 *178:18 *14904:B1 0.000310647
13 *178:18 *234:8 1.03836e-05
14 *178:18 *236:52 0
15 *178:18 *255:38 8.78748e-05
16 *178:35 *14816:A1 1.14876e-05
17 *178:35 *14904:B1 0.000210461
18 *178:35 *235:23 7.44161e-06
19 *178:35 *235:35 1.94522e-05
20 *178:35 *236:25 0.000140949
21 *178:35 *236:36 5.55911e-05
22 *178:35 *237:23 8.2338e-05
23 *14816:B1 *178:35 3.70071e-06
24 *89:10 *178:18 0.000222113
25 *151:12 *178:37 0.000876722
26 *155:10 *178:18 0
27 *155:34 *178:18 0.00016457
28 *177:12 *178:35 0.000144562
*RES
1 *14904:X *178:4 23 
2 *178:4 *178:18 43.8786 
3 *178:18 *14944:A1 31.2443 
4 *178:4 *178:35 41.5379 
5 *178:35 *178:37 27.7779 
6 *178:37 *14911:C 23 
*END

*D_NET *179 0.000936274
*CONN
*I *14946:B I *D sky130_fd_sc_hd__or3b_1
*I *14910:C I *D sky130_fd_sc_hd__or4_1
*I *14905:X O *D sky130_fd_sc_hd__or2_1
*CAP
1 *14946:B 3.68381e-05
2 *14910:C 0
3 *14905:X 9.14481e-05
4 *179:14 0.000166971
5 *179:6 0.000295257
6 *14946:B *14946:C_N 1.84917e-05
7 *179:6 *14946:C_N 3.7122e-06
8 *179:6 *255:60 6.89359e-06
9 *179:14 *183:20 5.58003e-05
10 *179:14 *224:54 7.3491e-05
11 *179:14 *224:125 5.5243e-05
12 *179:14 *224:134 5.75756e-06
13 *179:14 *245:14 5.58003e-05
14 *14910:A *179:14 5.202e-05
15 *157:28 *179:14 1.85495e-05
*RES
1 *14905:X *179:6 24.0979 
2 *179:6 *179:14 34.2879 
3 *179:14 *14910:C 23 
4 *179:6 *14946:B 23.6214 
*END

*D_NET *180 0.0289112
*CONN
*I *14909:A I *D sky130_fd_sc_hd__or4_1
*I *14912:B I *D sky130_fd_sc_hd__nand2_1
*I *14916:A1 I *D sky130_fd_sc_hd__o31a_1
*I *14924:B1 I *D sky130_fd_sc_hd__o21ai_1
*I *14932:B1 I *D sky130_fd_sc_hd__a2bb2o_1
*I *14926:B1 I *D sky130_fd_sc_hd__a2bb2o_1
*I *14941:A2 I *D sky130_fd_sc_hd__o41a_1
*I *14939:B I *D sky130_fd_sc_hd__nor2_4
*I *14935:A2 I *D sky130_fd_sc_hd__a21o_1
*I *14957:B1 I *D sky130_fd_sc_hd__o21a_1
*I *14906:X O *D sky130_fd_sc_hd__clkbuf_4
*CAP
1 *14909:A 5.41791e-05
2 *14912:B 0
3 *14916:A1 3.84414e-05
4 *14924:B1 0
5 *14932:B1 0
6 *14926:B1 0
7 *14941:A2 0
8 *14939:B 2.51778e-05
9 *14935:A2 1.96641e-05
10 *14957:B1 0
11 *14906:X 0
12 *180:150 0.000604137
13 *180:125 0.000914053
14 *180:104 0.000549218
15 *180:98 0.00153835
16 *180:91 0.000199713
17 *180:84 0.000602893
18 *180:80 0.00146482
19 *180:69 0.000640962
20 *180:54 0.00032216
21 *180:52 0.001701
22 *180:50 0.001701
23 *180:36 0.000548484
24 *180:28 0.000812616
25 *180:22 0.00222865
26 *180:16 0.00237651
27 *180:4 0.000446511
28 *14909:A *183:10 5.50049e-05
29 *14916:A1 *14916:B1 9.67842e-05
30 *14939:B *260:61 5.50049e-05
31 *180:16 *223:53 5.21024e-05
32 *180:22 *14935:A1 5.13694e-05
33 *180:22 *243:24 8.47306e-05
34 *180:22 *267:35 2.13733e-05
35 *180:28 *14935:A1 4.14243e-05
36 *180:28 *222:111 9.67842e-05
37 *180:36 *14935:A1 3.22879e-05
38 *180:36 *205:42 0
39 *180:36 *222:111 0
40 *180:36 *233:35 0
41 *180:36 *253:40 0
42 *180:52 *238:131 0.000111148
43 *180:52 *260:14 0
44 *180:52 *260:27 0
45 *180:52 *260:33 0
46 *180:52 *263:8 0
47 *180:52 *267:55 0.000632219
48 *180:69 *206:10 0
49 *180:69 *238:131 0
50 *180:69 *260:61 0.000227208
51 *180:80 *238:10 1.4471e-05
52 *180:80 *238:12 6.18339e-05
53 *180:80 *238:112 0.000267167
54 *180:80 *260:61 0
55 *180:84 *238:12 0.000237786
56 *180:84 *250:39 1.14452e-05
57 *180:91 *197:16 0.000355822
58 *180:91 *202:14 0.000184527
59 *180:98 *197:16 0.000912964
60 *180:98 *202:14 0.000924495
61 *180:104 *190:10 1.44546e-05
62 *180:104 *197:8 0
63 *180:104 *202:8 4.334e-05
64 *180:104 *225:12 0
65 *180:125 *14867:A 0.000470327
66 *180:125 *14915:B 7.81176e-05
67 *180:125 *197:16 0.000265609
68 *180:125 *202:14 0.000109901
69 *180:125 *225:37 0.00018651
70 *180:150 *14912:A 5.90675e-06
71 *180:150 *14913:A4 3.35959e-05
72 *180:150 *14913:B1 0.000142719
73 *14857:B1 *180:150 0.000279416
74 *14867:B *180:125 0
75 *14875:A *180:52 0.000387957
76 *14890:A2 *180:16 9.67842e-05
77 *14913:A3 *180:150 9.41704e-05
78 *14916:A2 *14916:A1 5.50106e-05
79 *14932:A1_N *180:91 7.59794e-05
80 *14935:B1 *14935:A2 5.90675e-06
81 *14935:B1 *180:22 2.11856e-05
82 *14935:B1 *180:36 6.89881e-05
83 *36:12 *180:36 1.14452e-05
84 *37:31 *180:52 0.00048309
85 *54:8 *180:36 0
86 *105:12 *180:22 4.66047e-05
87 *105:25 *180:22 0.000461562
88 *105:42 *180:16 0.000278871
89 *105:42 *180:22 0.000187129
90 *105:59 *14909:A 1.32314e-05
91 *105:59 *180:16 5.98028e-05
92 *139:12 *180:104 0
93 *147:27 *180:22 0.000622873
94 *147:40 *180:22 0.000389777
95 *147:106 *180:16 1.36806e-05
96 *149:10 *180:125 7.59964e-05
97 *155:10 *180:52 0
98 *155:10 *180:69 0.000383503
99 *155:10 *180:80 0
100 *155:10 *180:84 0
101 *166:10 *180:16 0.000110922
102 *166:10 *180:22 0.000446281
103 *167:14 *180:16 0.000178517
104 *167:35 *14909:A 6.48671e-05
105 *167:35 *180:16 0.000887236
106 *175:16 *180:104 0.000109502
107 *175:16 *180:125 0.000144067
108 *175:35 *180:104 2.01531e-05
109 *175:45 *180:84 0.000169665
*RES
1 *14906:X *180:4 23 
2 *180:4 *180:16 44.4793 
3 *180:16 *180:22 35.09 
4 *180:22 *180:28 3.99786 
5 *180:28 *180:36 40.6471 
6 *180:36 *14957:B1 23 
7 *180:28 *14935:A2 23.4971 
8 *180:22 *180:50 15 
9 *180:50 *180:52 40.6414 
10 *180:52 *180:54 15 
11 *180:54 *14939:B 23.6214 
12 *180:54 *180:69 37.6021 
13 *180:69 *14941:A2 23 
14 *180:69 *180:80 21.3179 
15 *180:80 *180:84 26.7657 
16 *180:84 *14926:B1 23 
17 *180:84 *180:91 3.95643 
18 *180:91 *14932:B1 23 
19 *180:91 *180:98 10.15 
20 *180:98 *180:104 38.9486 
21 *180:104 *14924:B1 23 
22 *180:98 *180:125 39.07 
23 *180:125 *14916:A1 39.0979 
24 *180:80 *180:150 27.905 
25 *180:150 *14912:B 23 
26 *180:4 *14909:A 24.5743 
*END

*D_NET *181 0.00125662
*CONN
*I *14908:B1_N I *D sky130_fd_sc_hd__a21bo_1
*I *14907:X O *D sky130_fd_sc_hd__a211o_1
*CAP
1 *14908:B1_N 4.00017e-05
2 *14907:X 0.000316587
3 *181:8 0.000356589
4 *181:8 *14834:A1 0
5 *181:8 *251:43 0
6 *14908:A2 *14908:B1_N 3.22879e-05
7 *113:42 *181:8 0.000511157
*RES
1 *14907:X *181:8 44.8357 
2 *181:8 *14908:B1_N 38.6214 
*END

*D_NET *182 0.00157319
*CONN
*I *14954:A1 I *D sky130_fd_sc_hd__mux2_1
*I *14909:D I *D sky130_fd_sc_hd__or4_1
*I *14908:X O *D sky130_fd_sc_hd__a21bo_1
*CAP
1 *14954:A1 9.12436e-05
2 *14909:D 0.00055812
3 *14908:X 5.92572e-05
4 *182:8 0.000708621
5 *14909:D *15019:CLK 0
6 *14909:D *205:75 0
7 *14909:D *213:8 2.79004e-05
8 *14909:D *239:139 0
9 *14909:D *251:18 4.26957e-05
10 *14954:A1 *251:12 2.93747e-05
11 *14954:A1 *251:18 3.22879e-05
12 *182:8 *239:139 0
13 *182:8 *251:18 2.36844e-05
*RES
1 *14908:X *182:8 39.2014 
2 *182:8 *14909:D 46.845 
3 *182:8 *14954:A1 39.9471 
*END

*D_NET *183 0.00286136
*CONN
*I *14910:D I *D sky130_fd_sc_hd__or4_1
*I *14909:X O *D sky130_fd_sc_hd__or4_1
*CAP
1 *14910:D 0
2 *14909:X 4.76924e-05
3 *183:20 0.000988728
4 *183:10 0.00103642
5 *183:20 *14836:B 7.73301e-05
6 *183:20 *14843:B1 3.28357e-06
7 *183:20 *205:75 0
8 *183:20 *224:134 0.0003514
9 *183:20 *245:14 2.33679e-05
10 *14909:A *183:10 5.50049e-05
11 *93:23 *183:20 3.28357e-06
12 *105:59 *183:10 3.91386e-05
13 *107:12 *183:20 6.79006e-05
14 *113:42 *183:20 0
15 *161:12 *183:20 7.61229e-06
16 *167:47 *183:20 8.85189e-05
17 *174:26 *183:20 1.58805e-05
18 *179:14 *183:20 5.58003e-05
*RES
1 *14909:X *183:10 39.1186 
2 *183:10 *183:20 36.9571 
3 *183:20 *14910:D 23 
*END

*D_NET *184 0.0030912
*CONN
*I *14911:D I *D sky130_fd_sc_hd__or4_1
*I *14910:X O *D sky130_fd_sc_hd__or4_1
*CAP
1 *14911:D 0
2 *14910:X 0
3 *184:12 0.000842074
4 *184:6 0.000842074
5 *184:12 *205:83 0.000695919
6 *184:12 *209:8 4.22436e-05
7 *184:12 *224:54 0
8 *14910:A *184:12 0.000164392
9 *157:28 *184:12 0.000378785
10 *158:8 *184:12 0.000125712
*RES
1 *14910:X *184:6 38 
2 *184:6 *184:12 35.3 
3 *184:12 *14911:D 23 
*END

*D_NET *185 0.0111005
*CONN
*I *14913:A4 I *D sky130_fd_sc_hd__o41ai_1
*I *14911:X O *D sky130_fd_sc_hd__or4_1
*CAP
1 *14913:A4 0.000445664
2 *14911:X 0.00026426
3 *185:30 0.00121817
4 *185:16 0.00264534
5 *185:10 0.00213709
6 *185:10 *224:68 2.09742e-05
7 *185:10 *229:61 0
8 *185:16 *14914:A 0
9 *185:16 *14924:A2 9.58714e-05
10 *185:16 *14930:B1 0.000305437
11 *185:16 *187:31 0.00069303
12 *185:16 *224:68 0.000114023
13 *185:16 *224:80 0
14 *185:16 *231:135 0
15 *185:16 *233:85 0
16 *185:16 *238:51 0.000349386
17 *185:16 *247:45 0
18 *185:30 *14857:A1 0.000488533
19 *185:30 *14918:A1 2.55642e-05
20 *185:30 *190:10 4.08537e-05
21 *185:30 *225:12 8.62876e-05
22 *185:30 *229:20 4.41393e-05
23 *14857:B1 *14913:A4 0.00100273
24 *14902:A *185:10 0
25 *14902:B *185:10 0.000167443
26 *14913:A2 *14913:A4 0.000247641
27 *14913:A3 *14913:A4 9.41704e-05
28 *14925:A1 *185:16 7.43025e-06
29 *14942:B *185:10 0
30 *131:8 *185:16 1.44813e-05
31 *133:16 *185:10 0.000106725
32 *133:16 *185:16 5.59262e-05
33 *151:22 *185:10 4.334e-05
34 *175:45 *14913:A4 0.000352421
35 *180:150 *14913:A4 3.35959e-05
*RES
1 *14911:X *185:10 43.9554 
2 *185:10 *185:16 46.2061 
3 *185:16 *185:30 43.3193 
4 *185:30 *14913:A4 36.5057 
*END

*D_NET *186 0.000452824
*CONN
*I *14913:B1 I *D sky130_fd_sc_hd__o41ai_1
*I *14912:Y O *D sky130_fd_sc_hd__nand2_1
*CAP
1 *14913:B1 0.000155052
2 *14912:Y 0.000155052
3 *14913:B1 *14912:A 0
4 *180:150 *14913:B1 0.000142719
*RES
1 *14912:Y *14913:B1 49.5007 
*END

*D_NET *187 0.00377297
*CONN
*I *14930:C1 I *D sky130_fd_sc_hd__a211o_1
*I *14915:B I *D sky130_fd_sc_hd__or2_1
*I *14914:Y O *D sky130_fd_sc_hd__nand2_1
*CAP
1 *14930:C1 0
2 *14915:B 0.00052846
3 *14914:Y 0.000318301
4 *187:31 0.000508396
5 *187:8 0.00135516
6 *14915:B *238:51 0
7 *187:8 *224:80 0
8 *187:8 *238:51 0
9 *187:31 *14930:B1 4.24001e-05
10 *14861:A *187:31 6.26126e-05
11 *14867:B *14915:B 0
12 *14925:A1 *187:31 2.04243e-05
13 *82:8 *14915:B 6.68793e-05
14 *148:36 *14915:B 0
15 *149:10 *14915:B 9.91895e-05
16 *180:125 *14915:B 7.81176e-05
17 *185:16 *187:31 0.00069303
*RES
1 *14914:Y *187:8 43.075 
2 *187:8 *14915:B 48.295 
3 *187:8 *187:31 29.8521 
4 *187:31 *14930:C1 23 
*END

*D_NET *188 0.00108413
*CONN
*I *14916:B1 I *D sky130_fd_sc_hd__o31a_1
*I *14915:X O *D sky130_fd_sc_hd__or2_1
*CAP
1 *14916:B1 0.000377024
2 *14915:X 6.93959e-05
3 *188:8 0.00044642
4 *188:8 *238:51 3.56537e-05
5 *14916:A1 *14916:B1 9.67842e-05
6 *14916:A2 *14916:B1 2.32004e-05
7 *91:10 *188:8 3.56537e-05
*RES
1 *14915:X *188:8 39.5536 
2 *188:8 *14916:B1 43.8829 
*END

*D_NET *189 0.00166247
*CONN
*I *14925:A2 I *D sky130_fd_sc_hd__o211a_1
*I *14917:Y O *D sky130_fd_sc_hd__a21boi_1
*CAP
1 *14925:A2 0.000127323
2 *14917:Y 0.000286752
3 *189:8 0.000414075
4 *14925:A2 *14924:A2 1.76557e-05
5 *14925:A2 *14925:C1 1.37232e-05
6 *14925:A2 *14930:A2 2.02517e-05
7 *189:8 *195:10 0.000321581
8 *189:8 *225:12 2.49733e-05
9 *14923:A2 *189:8 0.000116314
10 *14925:A1 *14925:A2 9.27569e-05
11 *137:30 *189:8 0.00022706
12 *152:18 *189:8 0
*RES
1 *14917:Y *189:8 45.8921 
2 *189:8 *14925:A2 41.045 
*END

*D_NET *190 0.000425616
*CONN
*I *14925:B1 I *D sky130_fd_sc_hd__o211a_1
*I *14918:X O *D sky130_fd_sc_hd__o211a_1
*CAP
1 *14925:B1 0
2 *14918:X 0.000171551
3 *190:10 0.000171551
4 *190:10 *225:12 2.72055e-05
5 *180:104 *190:10 1.44546e-05
6 *185:30 *190:10 4.08537e-05
*RES
1 *14918:X *190:10 40.8793 
2 *190:10 *14925:B1 38 
*END

*D_NET *191 0.00373655
*CONN
*I *14922:A1 I *D sky130_fd_sc_hd__o211a_1
*I *14919:Y O *D sky130_fd_sc_hd__a211oi_1
*CAP
1 *14922:A1 0
2 *14919:Y 0
3 *191:14 0.00135479
4 *191:6 0.00135479
5 *191:14 *14922:A2 4.39038e-05
6 *191:14 *192:8 0
7 *191:14 *193:20 0
8 *191:14 *194:8 6.17437e-06
9 *191:14 *224:35 0
10 *14889:B1 *191:14 0.000127662
11 *14919:C1 *191:14 0.000185095
12 *14920:A2 *191:14 0.000178946
13 *14922:C1 *191:14 0.000100477
14 *96:16 *191:14 4.35038e-05
15 *105:12 *191:14 0
16 *125:48 *191:14 0
17 *163:10 *191:14 0.000341204
*RES
1 *14919:Y *191:6 38 
2 *191:6 *191:14 43.6479 
3 *191:14 *14922:A1 23 
*END

*D_NET *192 0.00187317
*CONN
*I *14922:A2 I *D sky130_fd_sc_hd__o211a_1
*I *14920:X O *D sky130_fd_sc_hd__a211o_1
*CAP
1 *14922:A2 5.8184e-05
2 *14920:X 0.000394287
3 *192:8 0.000452471
4 *14922:A2 *194:8 1.66123e-05
5 *192:8 *193:20 0
6 *192:8 *224:22 4.66905e-05
7 *192:8 *224:35 0.000709676
8 *96:16 *14922:A2 0.000145171
9 *128:23 *14922:A2 6.17437e-06
10 *191:14 *14922:A2 4.39038e-05
11 *191:14 *192:8 0
*RES
1 *14920:X *192:8 48.005 
2 *192:8 *14922:A2 40.0714 
*END

*D_NET *193 0.00333395
*CONN
*I *14922:B1 I *D sky130_fd_sc_hd__o211a_1
*I *14921:X O *D sky130_fd_sc_hd__or2b_1
*CAP
1 *14922:B1 0
2 *14921:X 0.000307417
3 *193:20 0.000859323
4 *193:12 0.00116674
5 *193:12 *236:42 0
6 *193:12 *237:23 0.00019346
7 *14874:B *193:12 0.000190218
8 *15022:RESET_B *193:12 2.93747e-05
9 *92:8 *193:12 5.50049e-05
10 *96:22 *193:12 0.00026123
11 *103:33 *193:12 0
12 *152:10 *193:12 4.7088e-05
13 *154:10 *193:12 0.000162422
14 *161:12 *193:20 6.16686e-05
15 *191:14 *193:20 0
16 *192:8 *193:20 0
*RES
1 *14921:X *193:12 46.6586 
2 *193:12 *193:20 40.6264 
3 *193:20 *14922:B1 38 
*END

*D_NET *194 0.00352931
*CONN
*I *14929:A3 I *D sky130_fd_sc_hd__o31ai_1
*I *14923:A3 I *D sky130_fd_sc_hd__o311a_1
*I *14922:X O *D sky130_fd_sc_hd__o211a_1
*CAP
1 *14929:A3 0
2 *14923:A3 0.00017621
3 *14922:X 0.000128286
4 *194:10 0.00126281
5 *194:8 0.00121489
6 *14923:A3 *200:8 0.000114092
7 *14923:A3 *233:72 3.16784e-05
8 *194:10 *224:22 0.000190083
9 *14853:A *14923:A3 0
10 *14853:A *194:10 0
11 *14873:B1 *194:10 0
12 *14922:A2 *194:8 1.66123e-05
13 *14923:C1 *14923:A3 0
14 *127:8 *194:10 0
15 *128:23 *194:8 2.64616e-05
16 *128:23 *194:10 8.95337e-05
17 *129:39 *194:10 0
18 *134:10 *194:10 0
19 *136:12 *14923:A3 9.28945e-05
20 *136:12 *194:10 0.000179579
21 *177:25 *194:10 0
22 *191:14 *194:8 6.17437e-06
*RES
1 *14922:X *194:8 39.5743 
2 *194:8 *194:10 21.6257 
3 *194:10 *14923:A3 41.7079 
4 *194:10 *14929:A3 38 
*END

*D_NET *195 0.00256495
*CONN
*I *14930:B1 I *D sky130_fd_sc_hd__a211o_1
*I *14924:A2 I *D sky130_fd_sc_hd__o21ai_1
*I *14923:X O *D sky130_fd_sc_hd__o311a_1
*CAP
1 *14930:B1 0.000117258
2 *14924:A2 0.000207521
3 *14923:X 0.000203766
4 *195:12 0.00032478
5 *195:10 0.000203766
6 *14924:A2 *14925:C1 1.94812e-05
7 *195:10 *14918:A1 8.94394e-05
8 *195:10 *225:12 0.000110922
9 *195:10 *233:72 5.3304e-05
10 *14925:A1 *14924:A2 9.75779e-05
11 *14925:A1 *14930:B1 0.000306241
12 *14925:A2 *14924:A2 1.76557e-05
13 *152:18 *195:10 0
14 *175:35 *14924:A2 4.79498e-05
15 *185:16 *14924:A2 9.58714e-05
16 *185:16 *14930:B1 0.000305437
17 *187:31 *14930:B1 4.24001e-05
18 *189:8 *195:10 0.000321581
*RES
1 *14923:X *195:10 42.9921 
2 *195:10 *195:12 15 
3 *195:12 *14924:A2 27.4329 
4 *195:12 *14930:B1 27.3293 
*END

*D_NET *196 0.000162664
*CONN
*I *14925:C1 I *D sky130_fd_sc_hd__o211a_1
*I *14924:Y O *D sky130_fd_sc_hd__o21ai_1
*CAP
1 *14925:C1 3.72247e-05
2 *14924:Y 3.72247e-05
3 *14924:A2 *14925:C1 1.94812e-05
4 *14925:A2 *14925:C1 1.37232e-05
5 *175:35 *14925:C1 5.50106e-05
*RES
1 *14924:Y *14925:C1 47.1186 
*END

*D_NET *197 0.00499328
*CONN
*I *14926:A2_N I *D sky130_fd_sc_hd__a2bb2o_1
*I *14925:X O *D sky130_fd_sc_hd__o211a_1
*CAP
1 *14926:A2_N 0
2 *14925:X 0.000360266
3 *197:16 0.00087929
4 *197:8 0.00123956
5 *197:8 *201:8 0.000369948
6 *197:8 *225:12 8.13153e-05
7 *197:8 *225:14 8.62876e-05
8 *197:8 *225:20 0.000185755
9 *197:8 *225:37 0.000113153
10 *14932:A1_N *197:16 7.65917e-05
11 *80:10 *197:16 5.50106e-05
12 *136:12 *197:8 1.17049e-05
13 *175:16 *197:8 0
14 *180:91 *197:16 0.000355822
15 *180:98 *197:16 0.000912964
16 *180:104 *197:8 0
17 *180:125 *197:16 0.000265609
*RES
1 *14925:X *197:8 45.8921 
2 *197:8 *197:16 36.025 
3 *197:16 *14926:A2_N 23 
*END

*D_NET *198 0.000183861
*CONN
*I *14931:A1 I *D sky130_fd_sc_hd__o21a_1
*I *14927:Y O *D sky130_fd_sc_hd__a21oi_1
*CAP
1 *14931:A1 4.51859e-05
2 *14927:Y 4.51859e-05
3 *14931:A1 *14931:A2 2.64616e-05
4 *14931:A1 *14931:B1 5.3304e-05
5 *14927:A2 *14931:A1 1.37232e-05
*RES
1 *14927:Y *14931:A1 47.1186 
*END

*D_NET *199 0.000655186
*CONN
*I *14931:A2 I *D sky130_fd_sc_hd__o21a_1
*I *14928:X O *D sky130_fd_sc_hd__a31o_1
*CAP
1 *14931:A2 0.000246228
2 *14928:X 0.000246228
3 *14931:A2 *14931:B1 2.79543e-05
4 *14931:A1 *14931:A2 2.64616e-05
5 *137:30 *14931:A2 5.3304e-05
6 *137:39 *14931:A2 5.50106e-05
*RES
1 *14928:X *14931:A2 49.0036 
*END

*D_NET *200 0.00195922
*CONN
*I *14930:A2 I *D sky130_fd_sc_hd__a211o_1
*I *14929:Y O *D sky130_fd_sc_hd__o31ai_1
*CAP
1 *14930:A2 0.000240282
2 *14929:Y 0.000451885
3 *200:8 0.000692166
4 *14923:A3 *200:8 0.000114092
5 *14923:C1 *200:8 0
6 *14925:A1 *14930:A2 0.000184494
7 *14925:A2 *14930:A2 2.02517e-05
8 *136:12 *200:8 1.52259e-05
9 *140:12 *200:8 0.000230681
10 *142:10 *200:8 1.01436e-05
11 *142:14 *14930:A2 0
*RES
1 *14929:Y *200:8 46.5964 
2 *200:8 *14930:A2 41.9979 
*END

*D_NET *201 0.0014267
*CONN
*I *14931:B1 I *D sky130_fd_sc_hd__o21a_1
*I *14930:X O *D sky130_fd_sc_hd__a211o_1
*CAP
1 *14931:B1 0.00011772
2 *14930:X 0.000140897
3 *201:8 0.000258617
4 *14931:B1 *225:20 5.3304e-05
5 *14931:B1 *225:37 5.50106e-05
6 *14931:A1 *14931:B1 5.3304e-05
7 *14931:A2 *14931:B1 2.79543e-05
8 *136:12 *201:8 2.70469e-05
9 *137:30 *201:8 0.000322901
10 *197:8 *201:8 0.000369948
*RES
1 *14930:X *201:8 43.075 
2 *201:8 *14931:B1 40.5271 
*END

*D_NET *202 0.00245879
*CONN
*I *14932:A2_N I *D sky130_fd_sc_hd__a2bb2o_1
*I *14931:X O *D sky130_fd_sc_hd__o21a_1
*CAP
1 *14932:A2_N 0
2 *14931:X 4.63418e-05
3 *202:14 0.000507665
4 *202:8 0.000554006
5 *175:16 *202:8 8.85189e-05
6 *180:91 *202:14 0.000184527
7 *180:98 *202:14 0.000924495
8 *180:104 *202:8 4.334e-05
9 *180:125 *202:14 0.000109901
*RES
1 *14931:X *202:8 39.2014 
2 *202:8 *202:14 28.8579 
3 *202:14 *14932:A2_N 23 
*END

*D_NET *203 0.000696943
*CONN
*I *14934:A I *D sky130_fd_sc_hd__clkbuf_1
*I *14933:X O *D sky130_fd_sc_hd__and3_1
*CAP
1 *14934:A 0
2 *14933:X 0.000168391
3 *203:8 0.000168391
4 *203:8 *255:10 0.000360161
5 *79:10 *203:8 0
*RES
1 *14933:X *203:8 42.7229 
2 *203:8 *14934:A 38 
*END

*D_NET *204 0.00143873
*CONN
*I *14937:A I *D sky130_fd_sc_hd__clkbuf_1
*I *14936:X O *D sky130_fd_sc_hd__and3_1
*CAP
1 *14937:A 0.000213137
2 *14936:X 0.000358135
3 *204:8 0.000571271
4 *204:8 *239:36 0
5 *204:8 *259:8 0
6 *53:10 *14937:A 5.50106e-05
7 *53:10 *204:8 8.62783e-05
8 *77:10 *14937:A 0.000143655
9 *77:10 *204:8 1.12487e-05
*RES
1 *14936:X *204:8 44.8357 
2 *204:8 *14937:A 42.4743 
*END

*D_NET *205 0.0337726
*CONN
*I *14950:S I *D sky130_fd_sc_hd__mux2_1
*I *14948:S I *D sky130_fd_sc_hd__mux2_1
*I *14954:S I *D sky130_fd_sc_hd__mux2_1
*I *14946:C_N I *D sky130_fd_sc_hd__or3b_1
*I *14947:A2 I *D sky130_fd_sc_hd__o21a_1
*I *14942:C_N I *D sky130_fd_sc_hd__or3b_1
*I *14943:A2 I *D sky130_fd_sc_hd__o21a_1
*I *14952:S I *D sky130_fd_sc_hd__mux2_1
*I *14944:S I *D sky130_fd_sc_hd__mux2_1
*I *14940:B I *D sky130_fd_sc_hd__or2_1
*I *14939:Y O *D sky130_fd_sc_hd__nor2_4
*CAP
1 *14950:S 7.02787e-05
2 *14948:S 0
3 *14954:S 0.000119361
4 *14946:C_N 0.000225806
5 *14947:A2 2.79004e-05
6 *14942:C_N 0.000189221
7 *14943:A2 0.00022051
8 *14952:S 0
9 *14944:S 0
10 *14940:B 8.49771e-05
11 *14939:Y 0.000165428
12 *205:146 0.000106373
13 *205:83 0.0012271
14 *205:77 0.00095646
15 *205:75 0.00156196
16 *205:73 0.00144504
17 *205:69 0.0011309
18 *205:63 0.00132652
19 *205:50 0.00108645
20 *205:46 0.00205814
21 *205:42 0.00266965
22 *205:40 0.00155775
23 *205:34 0.00130011
24 *205:19 0.00190823
25 *205:8 0.000978553
26 *14940:B *233:58 0.000138718
27 *14940:B *253:40 0
28 *14942:C_N *14851:B1 2.93747e-05
29 *14942:C_N *14851:C1 3.91386e-05
30 *14942:C_N *224:60 1.32314e-05
31 *14943:A2 *14848:A 9.84851e-05
32 *14943:A2 *207:8 0.00014411
33 *14943:A2 *233:85 0
34 *14943:A2 *247:28 0
35 *14943:A2 *271:14 4.34745e-05
36 *14946:C_N *255:60 0.000187389
37 *14950:S *267:16 6.17437e-06
38 *14950:S *267:31 4.79641e-05
39 *205:8 *233:134 2.64616e-05
40 *205:19 *14807:B 0
41 *205:19 *14807:C 0.000390752
42 *205:19 *233:52 0.0008525
43 *205:19 *233:58 3.70187e-05
44 *205:19 *253:40 0
45 *205:34 *14807:B 0
46 *205:34 *211:8 0.000154385
47 *205:34 *253:40 0
48 *205:34 *267:16 2.64616e-05
49 *205:34 *267:55 0
50 *205:34 *270:12 5.97471e-05
51 *205:40 *267:16 2.31209e-05
52 *205:42 *222:111 3.82956e-05
53 *205:42 *239:26 0
54 *205:42 *257:10 0.00242908
55 *205:42 *267:16 1.96584e-05
56 *205:46 *239:12 0.00046312
57 *205:50 *212:10 3.22879e-05
58 *205:50 *239:122 0.000141052
59 *205:63 *239:122 0.000967969
60 *205:63 *244:20 4.02634e-05
61 *205:69 *242:64 0.000471985
62 *205:69 *244:20 0
63 *205:73 *251:18 0
64 *205:75 *251:18 0
65 *205:77 *264:10 4.6318e-06
66 *205:83 *224:54 0
67 *205:83 *247:14 0
68 *205:83 *264:10 6.33511e-05
69 *205:146 *268:20 6.68793e-05
70 *14884:S *205:63 8.02521e-05
71 *14884:S *205:69 0.000276445
72 *14894:A2 *205:69 0.000196549
73 *14899:A1 *205:69 0.000140958
74 *14908:A2 *205:69 9.41704e-05
75 *14909:D *205:75 0
76 *14942:B *14942:C_N 2.18409e-05
77 *14946:B *14946:C_N 1.84917e-05
78 *14950:A1 *205:42 0.000120999
79 *14961:B *205:42 0
80 *35:10 *205:42 0.000114083
81 *36:12 *205:42 0
82 *36:23 *205:42 0
83 *36:32 *205:42 0
84 *36:45 *205:42 0
85 *37:10 *205:42 0
86 *37:31 *205:40 3.35885e-06
87 *37:31 *205:42 0.000147931
88 *38:8 *205:42 0
89 *54:8 *205:42 0.000194318
90 *72:6 *14947:A2 5.50106e-05
91 *113:23 *205:69 0.000423549
92 *113:42 *205:73 0.000186025
93 *113:42 *205:75 0.000437244
94 *114:10 *205:69 2.3529e-05
95 *116:8 *205:69 8.62783e-05
96 *116:21 *205:69 0.000299187
97 *118:10 *205:69 0.000259365
98 *151:28 *205:83 0.000137153
99 *158:8 *205:75 0.00044506
100 *158:8 *205:77 0.000214513
101 *158:8 *205:83 0.000135547
102 *161:29 *205:50 0.000817057
103 *161:29 *205:63 0.000670268
104 *179:6 *14946:C_N 3.7122e-06
105 *180:36 *205:42 0
106 *183:20 *205:75 0
107 *184:12 *205:83 0.000695919
*RES
1 *14939:Y *205:8 40.0507 
2 *205:8 *14940:B 39.9057 
3 *205:8 *205:19 18.1043 
4 *205:19 *14944:S 38 
5 *205:19 *205:34 38.0136 
6 *205:34 *205:40 15.9425 
7 *205:40 *205:42 38.0004 
8 *205:42 *205:46 31.82 
9 *205:46 *205:50 20.0514 
10 *205:50 *14952:S 23 
11 *205:50 *205:63 28.7854 
12 *205:63 *205:69 43.3682 
13 *205:69 *205:73 17.61 
14 *205:73 *205:75 25.8514 
15 *205:75 *205:77 2.96214 
16 *205:77 *205:83 19.1193 
17 *205:83 *14943:A2 42.5364 
18 *205:83 *14942:C_N 42.1636 
19 *205:77 *14947:A2 38.6214 
20 *205:75 *14946:C_N 42.4536 
21 *205:73 *14954:S 40.0507 
22 *205:46 *205:146 31.9057 
23 *205:146 *14948:S 23 
24 *205:34 *14950:S 24.595 
*END

*D_NET *206 0.00117556
*CONN
*I *14941:B1 I *D sky130_fd_sc_hd__o41a_1
*I *14940:X O *D sky130_fd_sc_hd__or2_1
*CAP
1 *14941:B1 1.08631e-05
2 *14940:X 0.000319822
3 *206:10 0.000330685
4 *14941:B1 *233:72 5.67058e-05
5 *14941:B1 *238:112 5.50106e-05
6 *206:10 *14856:C 4.26957e-05
7 *206:10 *231:60 0.000135037
8 *206:10 *233:58 4.9662e-05
9 *206:10 *238:131 6.7177e-06
10 *138:8 *206:10 0.000165593
11 *175:58 *206:10 2.76611e-06
12 *180:69 *206:10 0
*RES
1 *14940:X *206:10 44.09 
2 *206:10 *14941:B1 38.6214 
*END

*D_NET *207 0.000644225
*CONN
*I *14943:B1 I *D sky130_fd_sc_hd__o21a_1
*I *14942:X O *D sky130_fd_sc_hd__or3b_1
*CAP
1 *14943:B1 7.45782e-05
2 *14942:X 7.52992e-05
3 *207:8 0.000149877
4 *14943:B1 *14848:A 5.67058e-05
5 *14943:B1 *271:14 0.000143655
6 *14943:A2 *207:8 0.00014411
*RES
1 *14942:X *207:8 39.9057 
2 *207:8 *14943:B1 40.0507 
*END

*D_NET *208 0.000407442
*CONN
*I *14945:A I *D sky130_fd_sc_hd__clkbuf_1
*I *14944:X O *D sky130_fd_sc_hd__mux2_1
*CAP
1 *14945:A 0.000203721
2 *14944:X 0.000203721
3 *14945:A *14807:A 0
*RES
1 *14944:X *14945:A 49.3764 
*END

*D_NET *209 0.000448712
*CONN
*I *14947:B1 I *D sky130_fd_sc_hd__o21a_1
*I *14946:X O *D sky130_fd_sc_hd__or3b_1
*CAP
1 *14947:B1 8.46785e-05
2 *14946:X 4.69474e-05
3 *209:8 0.000131626
4 *72:6 *14947:B1 5.50049e-05
5 *158:8 *209:8 8.82119e-05
6 *184:12 *209:8 4.22436e-05
*RES
1 *14946:X *209:8 39.2014 
2 *209:8 *14947:B1 39.8229 
*END

*D_NET *210 0.00017524
*CONN
*I *14949:A I *D sky130_fd_sc_hd__clkbuf_1
*I *14948:X O *D sky130_fd_sc_hd__mux2_1
*CAP
1 *14949:A 5.92668e-05
2 *14948:X 5.92668e-05
3 *14949:A *221:51 5.67058e-05
4 *14948:A1 *14949:A 0
*RES
1 *14948:X *14949:A 47.4707 
*END

*D_NET *211 0.00087844
*CONN
*I *14951:A I *D sky130_fd_sc_hd__clkbuf_1
*I *14950:X O *D sky130_fd_sc_hd__mux2_1
*CAP
1 *14951:A 0.000189923
2 *14950:X 0.000137677
3 *211:8 0.0003276
4 *211:8 *267:16 6.88552e-05
5 *211:8 *267:55 0
6 *70:14 *14951:A 0
7 *205:34 *211:8 0.000154385
*RES
1 *14950:X *211:8 42.0186 
2 *211:8 *14951:A 41.3764 
*END

*D_NET *212 0.00116844
*CONN
*I *14953:A I *D sky130_fd_sc_hd__clkbuf_1
*I *14952:X O *D sky130_fd_sc_hd__mux2_1
*CAP
1 *14953:A 0
2 *14952:X 0.000344705
3 *212:10 0.000344705
4 *212:10 *239:118 0.000174417
5 *212:10 *262:16 2.10884e-05
6 *212:10 *262:36 9.6289e-05
7 *45:10 *212:10 0.000114083
8 *69:8 *212:10 4.08641e-05
9 *205:50 *212:10 3.22879e-05
*RES
1 *14952:X *212:10 46.5136 
2 *212:10 *14953:A 38 
*END

*D_NET *213 0.000587482
*CONN
*I *14955:A I *D sky130_fd_sc_hd__clkbuf_1
*I *14954:X O *D sky130_fd_sc_hd__mux2_1
*CAP
1 *14955:A 0
2 *14954:X 0.000182722
3 *213:8 0.000182722
4 *213:8 *15019:CLK 0.000183898
5 *213:8 *221:14 1.02387e-05
6 *14909:D *213:8 2.79004e-05
*RES
1 *14954:X *213:8 43.075 
2 *213:8 *14955:A 38 
*END

*D_NET *214 0.00236881
*CONN
*I *14963:B2 I *D sky130_fd_sc_hd__o2bb2a_1
*I *14959:B I *D sky130_fd_sc_hd__or3_1
*I *14957:X O *D sky130_fd_sc_hd__o21a_1
*CAP
1 *14963:B2 0
2 *14959:B 5.12892e-05
3 *14957:X 0.00043727
4 *214:29 0.00021078
5 *214:12 0.000456407
6 *214:8 0.000631608
7 *214:8 *226:12 0
8 *214:8 *233:27 0
9 *214:8 *233:35 0
10 *214:29 *14963:A2_N 1.24376e-05
11 *214:29 *215:6 5.3304e-05
12 *214:29 *215:21 8.62783e-05
13 *214:29 *226:12 3.55887e-05
14 *214:29 *233:10 4.03402e-06
15 *214:29 *233:16 2.47861e-05
16 *214:29 *233:27 3.57136e-05
17 *36:12 *214:8 2.54046e-05
18 *36:23 *214:8 2.19643e-05
19 *37:12 *214:8 4.49946e-05
20 *37:12 *214:29 0
21 *37:18 *214:8 0.00023695
*RES
1 *14957:X *214:8 47.6529 
2 *214:8 *214:12 17.5271 
3 *214:12 *14959:B 23.6214 
4 *214:12 *214:29 34.4329 
5 *214:29 *14963:B2 23 
*END

*D_NET *215 0.00093086
*CONN
*I *14959:C I *D sky130_fd_sc_hd__or3_1
*I *14963:A2_N I *D sky130_fd_sc_hd__o2bb2a_1
*I *14958:X O *D sky130_fd_sc_hd__and2b_1
*CAP
1 *14959:C 0
2 *14963:A2_N 0.000152839
3 *14958:X 7.88852e-05
4 *215:21 9.41457e-05
5 *215:6 0.00032587
6 *14963:A2_N *14963:A1_N 5.12254e-05
7 *14963:A2_N *233:16 3.06403e-05
8 *215:6 *233:10 4.38068e-06
9 *215:21 *233:27 4.08537e-05
10 *214:29 *14963:A2_N 1.24376e-05
11 *214:29 *215:6 5.3304e-05
12 *214:29 *215:21 8.62783e-05
*RES
1 *14958:X *215:6 24.0979 
2 *215:6 *14963:A2_N 25.0507 
3 *215:6 *215:21 32.0507 
4 *215:21 *14959:C 23 
*END

*D_NET *216 0.000764187
*CONN
*I *14960:A I *D sky130_fd_sc_hd__clkbuf_1
*I *14959:X O *D sky130_fd_sc_hd__or3_1
*CAP
1 *14960:A 0
2 *14959:X 0.000382093
3 *216:10 0.000382093
4 *216:10 *221:81 0
*RES
1 *14959:X *216:10 43.3857 
2 *216:10 *14960:A 38 
*END

*D_NET *217 0.00138083
*CONN
*I *14965:A2 I *D sky130_fd_sc_hd__o21a_1
*I *14962:B I *D sky130_fd_sc_hd__xnor2_1
*I *14961:Y O *D sky130_fd_sc_hd__nand2_1
*CAP
1 *14965:A2 0
2 *14962:B 8.1719e-05
3 *14961:Y 0
4 *217:21 0.00038662
5 *217:4 0.000468339
6 *217:21 *219:10 8.62876e-05
7 *217:21 *257:10 8.62876e-05
8 *38:16 *14962:B 7.69576e-05
9 *38:20 *14962:B 7.73389e-05
10 *38:20 *217:21 0.000117284
*RES
1 *14961:Y *217:4 23 
2 *217:4 *14962:B 25.4236 
3 *217:4 *217:21 36.1107 
4 *217:21 *14965:A2 23 
*END

*D_NET *218 0.000774064
*CONN
*I *14963:B1 I *D sky130_fd_sc_hd__o2bb2a_1
*I *14962:Y O *D sky130_fd_sc_hd__xnor2_1
*CAP
1 *14963:B1 0
2 *14962:Y 0.000370888
3 *218:10 0.000370888
4 *218:10 *221:61 3.22879e-05
5 *218:10 *221:81 0
6 *14961:A *218:10 0
7 *36:58 *218:10 0
8 *37:10 *218:10 0
*RES
1 *14962:Y *218:10 43.8207 
2 *218:10 *14963:B1 38 
*END

*D_NET *219 0.000669269
*CONN
*I *14965:A1 I *D sky130_fd_sc_hd__o21a_1
*I *14964:Y O *D sky130_fd_sc_hd__inv_2
*CAP
1 *14965:A1 0
2 *14964:Y 0.000241477
3 *219:10 0.000241477
4 *219:10 *257:10 2.95125e-05
5 *38:20 *219:10 7.05156e-05
6 *217:21 *219:10 8.62876e-05
*RES
1 *14964:Y *219:10 42.4329 
2 *219:10 *14965:A1 38 
*END

*D_NET *220 0.0169118
*CONN
*I *14989:A I *D sky130_fd_sc_hd__inv_2
*I *14967:A I *D sky130_fd_sc_hd__buf_4
*I *14992:A I *D sky130_fd_sc_hd__inv_2
*I *14990:A I *D sky130_fd_sc_hd__inv_2
*I *14991:A I *D sky130_fd_sc_hd__inv_2
*I *14993:A I *D sky130_fd_sc_hd__inv_2
*I *14994:A I *D sky130_fd_sc_hd__inv_2
*I *14995:A I *D sky130_fd_sc_hd__inv_2
*I *14996:A I *D sky130_fd_sc_hd__inv_2
*I *14978:A I *D sky130_fd_sc_hd__buf_4
*I *14966:X O *D sky130_fd_sc_hd__buf_4
*CAP
1 *14989:A 0
2 *14967:A 0
3 *14992:A 0
4 *14990:A 6.29776e-05
5 *14991:A 8.86243e-05
6 *14993:A 0
7 *14994:A 0
8 *14995:A 0
9 *14996:A 0
10 *14978:A 9.74748e-05
11 *14966:X 0.000539587
12 *220:123 0.000406793
13 *220:113 0.00076478
14 *220:111 0.000804918
15 *220:94 0.00171842
16 *220:77 0.00214089
17 *220:64 0.00129872
18 *220:51 0.000774743
19 *220:47 0.00195889
20 *220:38 0.00148585
21 *220:31 0.000141474
22 *220:18 0.000824989
23 *220:14 0.00148334
24 *220:12 0.000680217
25 *14978:A *222:8 0.00010018
26 *220:31 *222:12 0
27 *220:31 *222:139 0
28 *220:31 *248:25 8.68472e-05
29 *220:38 *271:14 7.03766e-05
30 *220:51 *15032:A 9.84851e-05
31 *220:51 *264:10 0.00023032
32 *220:64 *238:90 0
33 *220:77 *245:14 5.76359e-05
34 *220:111 *241:12 0
35 *220:113 *221:8 9.84851e-05
36 *220:123 *239:135 0
37 *14879:A *220:51 4.21281e-05
38 *44:10 *220:94 0.000194318
39 *60:10 *220:111 0.000143449
40 *61:10 *14990:A 7.53384e-06
41 *61:10 *220:111 0.000110922
42 *62:10 *14991:A 7.53384e-06
43 *62:10 *220:94 5.21127e-05
44 *64:10 *220:64 0.000112396
45 *66:10 *220:47 0.000169674
46 *157:24 *220:51 5.67058e-05
*RES
1 *14966:X *220:12 48.0671 
2 *220:12 *220:14 2.25786 
3 *220:14 *220:18 25.15 
4 *220:18 *14978:A 25.0507 
5 *220:18 *220:31 33.3143 
6 *220:31 *14996:A 23 
7 *220:14 *220:38 13.8786 
8 *220:38 *14995:A 38 
9 *220:38 *220:47 14.5829 
10 *220:47 *220:51 30.8671 
11 *220:51 *14994:A 23 
12 *220:47 *220:64 24.0107 
13 *220:64 *14993:A 23 
14 *220:64 *220:77 31.1779 
15 *220:77 *14991:A 39.595 
16 *220:77 *220:94 23.4486 
17 *220:94 *14990:A 39.1186 
18 *220:94 *220:111 23.99 
19 *220:111 *220:113 6.815 
20 *220:113 *220:123 37.4157 
21 *220:123 *14992:A 23 
22 *220:113 *14967:A 23 
23 *220:111 *14989:A 23 
*END

*D_NET *221 0.0248812
*CONN
*I *14973:A I *D sky130_fd_sc_hd__inv_2
*I *14971:A I *D sky130_fd_sc_hd__inv_2
*I *14968:A I *D sky130_fd_sc_hd__inv_2
*I *14974:A I *D sky130_fd_sc_hd__inv_2
*I *14977:A I *D sky130_fd_sc_hd__inv_2
*I *14970:A I *D sky130_fd_sc_hd__inv_2
*I *14969:A I *D sky130_fd_sc_hd__inv_2
*I *14975:A I *D sky130_fd_sc_hd__inv_2
*I *14972:A I *D sky130_fd_sc_hd__inv_2
*I *14976:A I *D sky130_fd_sc_hd__inv_2
*I *14967:X O *D sky130_fd_sc_hd__buf_4
*CAP
1 *14973:A 0
2 *14971:A 0
3 *14968:A 5.77636e-05
4 *14974:A 9.41788e-05
5 *14977:A 0.0002368
6 *14970:A 0
7 *14969:A 5.68545e-05
8 *14975:A 0
9 *14972:A 0.000261363
10 *14976:A 0
11 *14967:X 5.15114e-05
12 *221:87 0.000727364
13 *221:81 0.00141632
14 *221:63 0.000106562
15 *221:61 0.00111244
16 *221:59 0.00117335
17 *221:51 0.00190234
18 *221:40 0.00167118
19 *221:38 0.0026247
20 *221:14 0.000966103
21 *221:10 0.0021326
22 *221:8 0.00273972
23 *14977:A *231:31 0.000322271
24 *14977:A *233:35 0.000322271
25 *221:10 *15019:CLK 0.000210668
26 *221:10 *239:135 0.000169683
27 *221:10 *239:137 0.000216712
28 *221:10 *239:139 0.00129698
29 *221:14 *15019:CLK 0.000222113
30 *221:38 *239:135 0.000376996
31 *221:38 *244:53 0.000223043
32 *221:40 *268:12 9.84794e-05
33 *221:51 *14948:A0 0.000236511
34 *221:51 *268:12 4.04303e-05
35 *221:81 *231:31 0.000510106
36 *221:81 *233:27 0.000415405
37 *221:81 *233:35 0.000144812
38 *221:87 *231:31 0.00103196
39 *221:87 *233:35 0.00031299
40 *14948:A1 *221:40 2.18409e-05
41 *14949:A *221:51 5.67058e-05
42 *34:10 *221:59 0
43 *34:10 *221:81 0
44 *38:8 *221:59 0
45 *38:20 *221:81 0
46 *40:10 *14968:A 1.94812e-05
47 *40:10 *221:81 0.00019747
48 *41:8 *221:81 0
49 *42:10 *14969:A 5.37348e-06
50 *42:10 *221:59 0
51 *42:10 *221:63 2.30292e-05
52 *43:10 *221:51 1.14876e-05
53 *43:10 *221:59 3.7122e-06
54 *45:10 *221:40 5.25848e-05
55 *68:10 *221:10 0
56 *68:10 *221:14 0
57 *70:14 *14974:A 0.000139357
58 *70:14 *221:87 0.000116314
59 *71:10 *221:51 0.000143655
60 *78:10 *221:87 6.93449e-05
61 *84:10 *221:10 0.000194318
62 *85:10 *221:10 3.21327e-05
63 *88:8 *221:14 0.000170807
64 *213:8 *221:14 1.02387e-05
65 *216:10 *221:81 0
66 *218:10 *221:61 3.22879e-05
67 *218:10 *221:81 0
68 *220:113 *221:8 9.84851e-05
*RES
1 *14967:X *221:8 39.0979 
2 *221:8 *221:10 24.795 
3 *221:10 *221:14 35.2171 
4 *221:14 *14976:A 23 
5 *221:10 *14972:A 42.4329 
6 *221:8 *221:38 49.51 
7 *221:38 *221:40 15.8671 
8 *221:40 *14975:A 23 
9 *221:40 *221:51 16.385 
10 *221:51 *221:59 49.575 
11 *221:59 *221:61 2.05071 
12 *221:61 *221:63 1.09786 
13 *221:63 *14969:A 24.0979 
14 *221:63 *14970:A 23 
15 *221:61 *221:81 38.1793 
16 *221:81 *221:87 14.645 
17 *221:87 *14977:A 46.5964 
18 *221:87 *14974:A 40.0714 
19 *221:81 *14968:A 39.1186 
20 *221:51 *14971:A 23 
21 *221:38 *14973:A 23 
*END

*D_NET *222 0.0234364
*CONN
*I *14979:A I *D sky130_fd_sc_hd__inv_2
*I *14987:A I *D sky130_fd_sc_hd__inv_2
*I *14985:A I *D sky130_fd_sc_hd__inv_2
*I *14986:A I *D sky130_fd_sc_hd__inv_2
*I *14983:A I *D sky130_fd_sc_hd__inv_2
*I *14982:A I *D sky130_fd_sc_hd__inv_2
*I *14981:A I *D sky130_fd_sc_hd__inv_2
*I *14984:A I *D sky130_fd_sc_hd__inv_2
*I *14980:A I *D sky130_fd_sc_hd__inv_2
*I *14988:A I *D sky130_fd_sc_hd__inv_2
*I *14978:X O *D sky130_fd_sc_hd__buf_4
*CAP
1 *14979:A 0
2 *14987:A 2.26248e-05
3 *14985:A 0
4 *14986:A 0
5 *14983:A 0
6 *14982:A 0.000644944
7 *14981:A 0
8 *14984:A 2.71001e-05
9 *14980:A 0.000234595
10 *14988:A 0
11 *14978:X 0.000200032
12 *222:139 0.000614331
13 *222:111 0.00101323
14 *222:92 0.00312982
15 *222:81 0.00191771
16 *222:70 0.00107102
17 *222:57 0.00102038
18 *222:48 0.00152161
19 *222:36 0.00172839
20 *222:28 0.00259355
21 *222:22 0.00261573
22 *222:12 0.00102012
23 *222:8 0.00139497
24 *14980:A *14912:A 0
25 *14984:A *15012:CLK 5.50106e-05
26 *222:12 *252:20 0
27 *222:22 *238:27 5.56203e-05
28 *222:28 *15014:CLK 8.82669e-05
29 *222:36 *238:16 9.74235e-05
30 *222:36 *249:29 0.000252056
31 *222:48 *249:29 8.65442e-05
32 *222:70 *231:41 0
33 *222:70 *272:31 6.63801e-05
34 *222:81 *231:41 0
35 *222:92 *15003:CLK 0.000195638
36 *222:92 *231:31 0
37 *222:92 *231:41 0
38 *222:111 *14935:A1 9.84794e-05
39 *222:111 *15011:CLK 2.64616e-05
40 *222:111 *253:40 0
41 *222:139 *248:27 0.000575004
42 *14978:A *222:8 0.00010018
43 *15011:RESET_B *222:111 2.52027e-05
44 *15012:RESET_B *14984:A 6.17437e-06
45 *15015:D *222:28 6.18929e-05
46 *51:10 *222:70 0
47 *52:8 *222:92 0.000199701
48 *54:8 *222:111 8.62783e-05
49 *58:10 *14987:A 2.93845e-05
50 *58:10 *222:12 0.000114083
51 *58:10 *222:22 6.17437e-06
52 *59:10 *222:48 0.000110913
53 *67:8 *222:12 0
54 *73:10 *222:92 0
55 *80:10 *222:36 0.000194318
56 *91:10 *222:12 0
57 *180:28 *222:111 9.67842e-05
58 *180:36 *222:111 0
59 *205:42 *222:111 3.82956e-05
60 *220:31 *222:12 0
61 *220:31 *222:139 0
*RES
1 *14978:X *222:8 41.9564 
2 *222:8 *222:12 26.0614 
3 *222:12 *222:22 37.7886 
4 *222:22 *222:28 37.9486 
5 *222:28 *222:36 39.9014 
6 *222:36 *222:48 40.8929 
7 *222:48 *14988:A 38 
8 *222:48 *222:57 3.66643 
9 *222:57 *14980:A 41.9771 
10 *222:57 *222:70 11.0614 
11 *222:70 *14984:A 38.6214 
12 *222:70 *222:81 8.24429 
13 *222:81 *14981:A 38 
14 *222:81 *222:92 45.4293 
15 *222:92 *14982:A 31.9693 
16 *222:92 *222:111 43.9821 
17 *222:111 *14983:A 23 
18 *222:36 *14986:A 23 
19 *222:28 *14985:A 23 
20 *222:12 *14987:A 23.6214 
21 *222:8 *222:139 28.4229 
22 *222:139 *14979:A 23 
*END

*D_NET *223 0.0123142
*CONN
*I *14829:B I *D sky130_fd_sc_hd__nand2_1
*I *14830:A2 I *D sky130_fd_sc_hd__o221ai_4
*I *14797:A I *D sky130_fd_sc_hd__clkbuf_4
*I *14813:B I *D sky130_fd_sc_hd__and2_1
*I *14820:A2 I *D sky130_fd_sc_hd__a21o_1
*I *14796:X O *D sky130_fd_sc_hd__or3_4
*CAP
1 *14829:B 4.24218e-05
2 *14830:A2 0.000360664
3 *14797:A 0
4 *14813:B 0
5 *14820:A2 0
6 *14796:X 0.000202094
7 *223:63 0.00053612
8 *223:53 0.00187031
9 *223:47 0.00214056
10 *223:33 0.000854256
11 *223:26 0.000393289
12 *223:16 0.00100294
13 *223:12 0.000445623
14 *14829:B *14829:A 3.54864e-06
15 *14829:B *242:38 2.4754e-05
16 *14829:B *261:10 1.32314e-05
17 *14830:A2 *231:119 5.79042e-05
18 *223:12 *266:8 0.000195331
19 *223:16 *14823:A 5.50049e-05
20 *223:16 *14823:B 2.4754e-05
21 *223:16 *261:10 2.98648e-05
22 *223:26 *244:24 0.000354122
23 *223:33 *14823:A 0.000359332
24 *223:33 *14823:B 4.95081e-05
25 *223:33 *261:10 0.000135872
26 *223:47 *242:38 3.58084e-06
27 *223:53 *229:40 0.000790578
28 *223:53 *229:42 0.000595483
29 *223:53 *229:112 0.000242926
30 *223:63 *14813:A 5.82853e-05
31 *223:63 *224:10 0
32 *223:63 *229:42 0
33 *14830:B1 *14830:A2 9.5877e-05
34 *14830:C1 *14830:A2 2.4754e-05
35 *14837:B1 *223:47 0.000123934
36 *100:8 *223:12 0
37 *101:16 *223:12 0.000139352
38 *101:24 *223:12 0.000114776
39 *101:24 *223:16 1.76557e-05
40 *106:8 *223:53 0
41 *109:10 *223:12 9.2467e-06
42 *109:10 *223:16 5.41385e-05
43 *109:33 *14830:A2 0.0002263
44 *110:26 *14830:A2 5.67058e-05
45 *111:10 *223:47 0.000240032
46 *111:25 *14830:A2 4.08641e-05
47 *112:10 *14830:A2 0
48 *112:10 *223:53 0
49 *117:12 *14830:A2 0
50 *119:10 *14830:A2 0
51 *119:22 *223:53 0
52 *147:106 *223:53 0
53 *161:19 *223:26 0.000114764
54 *166:10 *223:53 1.69668e-05
55 *169:25 *14830:A2 3.97502e-05
56 *169:25 *223:53 4.96264e-05
57 *172:8 *223:47 5.50049e-05
58 *180:16 *223:53 5.21024e-05
*RES
1 *14796:X *223:12 42.6814 
2 *223:12 *223:16 19.4329 
3 *223:16 *223:26 39.1764 
4 *223:26 *14820:A2 23 
5 *223:16 *223:33 8.72071 
6 *223:33 *223:47 23.5964 
7 *223:47 *223:53 44.435 
8 *223:53 *223:63 40.2329 
9 *223:63 *14813:B 23 
10 *223:53 *14797:A 23 
11 *223:47 *14830:A2 45.9129 
12 *223:33 *14829:B 24.4707 
*END

*D_NET *224 0.0239198
*CONN
*I *14836:B I *D sky130_fd_sc_hd__and2_1
*I *14825:B I *D sky130_fd_sc_hd__nand2_1
*I *14843:C1 I *D sky130_fd_sc_hd__o211a_1
*I *14871:A2 I *D sky130_fd_sc_hd__a21o_1
*I *14851:C1 I *D sky130_fd_sc_hd__o211a_1
*I *14855:A2 I *D sky130_fd_sc_hd__a21o_1
*I *14850:A2 I *D sky130_fd_sc_hd__a21bo_1
*I *14798:B I *D sky130_fd_sc_hd__and2_2
*I *14838:B I *D sky130_fd_sc_hd__nand3_1
*I *14809:B I *D sky130_fd_sc_hd__and2_1
*I *14797:X O *D sky130_fd_sc_hd__clkbuf_4
*CAP
1 *14836:B 0.000292253
2 *14825:B 9.97945e-05
3 *14843:C1 0
4 *14871:A2 0.000145783
5 *14851:C1 2.9179e-05
6 *14855:A2 7.28059e-05
7 *14850:A2 0.000113407
8 *14798:B 0
9 *14838:B 0
10 *14809:B 0
11 *14797:X 0.000514835
12 *224:134 0.00112718
13 *224:125 0.000805528
14 *224:80 0.000859971
15 *224:74 0.0013688
16 *224:68 0.000829465
17 *224:60 0.000478369
18 *224:54 0.00107462
19 *224:44 0.00140181
20 *224:35 0.000757938
21 *224:22 0.000885512
22 *224:16 0.0027927
23 *224:12 0.00163978
24 *224:10 0.000514835
25 *14825:B *14825:A 5.90675e-06
26 *14825:B *243:12 5.41288e-05
27 *14825:B *243:14 2.93845e-05
28 *14836:B *231:127 0
29 *14851:C1 *14851:A1 0
30 *14851:C1 *14851:B1 1.01923e-05
31 *14855:A2 *14848:A 0
32 *14855:A2 *247:28 1.76557e-05
33 *14855:A2 *247:32 9.41492e-05
34 *224:10 *14813:A 0.00018065
35 *224:10 *229:50 0
36 *224:10 *231:127 0
37 *224:10 *245:20 9.87827e-05
38 *224:22 *14903:B 1.32314e-05
39 *224:22 *236:6 4.6595e-05
40 *224:54 *231:135 4.07715e-05
41 *224:54 *233:100 0.00100665
42 *224:54 *247:14 8.85189e-05
43 *224:60 *14851:B1 1.03955e-05
44 *224:60 *233:100 0.000166513
45 *224:60 *247:14 0.000166513
46 *224:68 *14851:A1 5.50106e-05
47 *224:68 *14851:B1 3.34085e-05
48 *224:68 *231:135 0
49 *224:74 *14850:A1 3.22879e-05
50 *224:74 *247:32 7.79377e-05
51 *224:80 *14857:A1 9.67842e-05
52 *224:80 *238:51 0
53 *224:80 *248:27 0.00126188
54 *224:134 *231:127 0
55 *14849:B1 *224:68 1.76557e-05
56 *14851:A2 *14851:C1 4.28848e-07
57 *14871:B1 *14871:A2 8.43466e-05
58 *14882:A *224:35 0
59 *14902:A *224:68 4.21656e-05
60 *14920:A1 *224:35 0
61 *14920:A2 *224:35 0
62 *14942:B *224:60 5.3304e-05
63 *14942:B *224:68 9.58714e-05
64 *14942:C_N *14851:C1 3.91386e-05
65 *14942:C_N *224:60 1.32314e-05
66 *93:8 *224:54 6.40406e-05
67 *93:23 *224:54 3.71192e-05
68 *93:23 *224:125 5.1823e-05
69 *93:23 *224:134 2.46399e-05
70 *94:14 *224:16 7.21896e-05
71 *94:14 *224:44 0.000176125
72 *95:10 *224:134 2.36418e-05
73 *105:59 *14836:B 0.000116314
74 *107:12 *224:134 0.000141888
75 *108:8 *224:35 5.50049e-05
76 *108:45 *224:35 9.28739e-05
77 *120:8 *224:35 5.21127e-05
78 *123:14 *224:35 0
79 *124:10 *224:35 0
80 *128:23 *224:22 0.000240717
81 *129:10 *224:22 0
82 *129:39 *224:22 0
83 *130:8 *224:68 2.79004e-05
84 *130:14 *224:68 1.85413e-05
85 *132:6 *14850:A2 5.50106e-05
86 *133:16 *14850:A2 0.00014196
87 *133:16 *224:74 9.24795e-06
88 *137:14 *14850:A2 1.58805e-05
89 *137:14 *224:74 0.00014196
90 *137:14 *224:80 1.02561e-05
91 *137:22 *14850:A2 2.18409e-05
92 *137:22 *224:74 9.67842e-05
93 *147:61 *224:22 0.000135526
94 *151:22 *14871:A2 0.000137651
95 *157:8 *224:22 0.000135249
96 *157:28 *224:54 8.41996e-05
97 *167:47 *14825:B 0
98 *174:26 *14836:B 0
99 *177:25 *224:22 0.000356559
100 *179:14 *224:54 7.3491e-05
101 *179:14 *224:125 5.5243e-05
102 *179:14 *224:134 5.75756e-06
103 *183:20 *14836:B 7.73301e-05
104 *183:20 *224:134 0.0003514
105 *184:12 *224:54 0
106 *185:10 *224:68 2.09742e-05
107 *185:16 *224:68 0.000114023
108 *185:16 *224:80 0
109 *187:8 *224:80 0
110 *191:14 *224:35 0
111 *192:8 *224:22 4.66905e-05
112 *192:8 *224:35 0.000709676
113 *194:10 *224:22 0.000190083
114 *205:83 *224:54 0
115 *223:63 *224:10 0
*RES
1 *14797:X *224:10 48.0982 
2 *224:10 *224:12 8 
3 *224:12 *224:16 10.8037 
4 *224:16 *224:22 35.5382 
5 *224:22 *14809:B 23 
6 *224:16 *224:35 31.9339 
7 *224:35 *14838:B 23 
8 *224:12 *224:44 9.0864 
9 *224:44 *224:54 19.8132 
10 *224:54 *224:60 17.8793 
11 *224:60 *224:68 36.5457 
12 *224:68 *224:74 21.3593 
13 *224:74 *224:80 34.6371 
14 *224:80 *14798:B 23 
15 *224:74 *14850:A2 40.7757 
16 *224:68 *14855:A2 24.9471 
17 *224:60 *14851:C1 23.8493 
18 *224:54 *14871:A2 41.0243 
19 *224:44 *224:125 1.72964 
20 *224:125 *14843:C1 38 
21 *224:125 *224:134 17.4 
22 *224:134 *14825:B 40.0714 
23 *224:134 *14836:B 43.4271 
*END

*D_NET *225 0.00609313
*CONN
*I *14918:A1 I *D sky130_fd_sc_hd__o211a_1
*I *14859:B_N I *D sky130_fd_sc_hd__or2b_1
*I *14858:A I *D sky130_fd_sc_hd__or2b_1
*I *14901:B_N I *D sky130_fd_sc_hd__nor2b_2
*I *14867:A I *D sky130_fd_sc_hd__or2_1
*I *14928:A1 I *D sky130_fd_sc_hd__a31o_1
*I *14927:B1 I *D sky130_fd_sc_hd__a21oi_1
*I *14798:X O *D sky130_fd_sc_hd__and2_2
*CAP
1 *14918:A1 0.000136035
2 *14859:B_N 0
3 *14858:A 0
4 *14901:B_N 0.000247193
5 *14867:A 0.000214983
6 *14928:A1 0
7 *14927:B1 0
8 *14798:X 0
9 *225:59 0.000336119
10 *225:43 0.000136781
11 *225:37 0.000511751
12 *225:20 0.00032421
13 *225:14 0.000306042
14 *225:12 0.000304891
15 *225:6 0.000388033
16 *14918:A1 *14857:A1 0.000228903
17 *14859:A *14901:B_N 0.000152468
18 *14859:A *225:59 0.000141954
19 *14931:B1 *225:20 5.3304e-05
20 *14931:B1 *225:37 5.50106e-05
21 *136:12 *225:37 6.07611e-06
22 *136:12 *225:43 0
23 *136:25 *225:37 2.02517e-05
24 *137:30 *225:12 0
25 *139:19 *14901:B_N 0.000114032
26 *152:18 *14918:A1 0
27 *175:16 *14867:A 0.000576704
28 *175:16 *225:12 1.35676e-05
29 *175:16 *225:14 0
30 *175:16 *225:20 0
31 *175:16 *225:37 0.000314157
32 *175:35 *225:12 2.29192e-05
33 *180:104 *225:12 0
34 *180:125 *14867:A 0.000470327
35 *180:125 *225:37 0.00018651
36 *185:30 *14918:A1 2.55642e-05
37 *185:30 *225:12 8.62876e-05
38 *189:8 *225:12 2.49733e-05
39 *190:10 *225:12 2.72055e-05
40 *195:10 *14918:A1 8.94394e-05
41 *195:10 *225:12 0.000110922
42 *197:8 *225:12 8.13153e-05
43 *197:8 *225:14 8.62876e-05
44 *197:8 *225:20 0.000185755
45 *197:8 *225:37 0.000113153
*RES
1 *14798:X *225:6 38 
2 *225:6 *225:12 5.48929 
3 *225:12 *225:14 1.20143 
4 *225:14 *225:20 18.2314 
5 *225:20 *14927:B1 23 
6 *225:20 *225:37 36.1521 
7 *225:37 *225:43 32.2579 
8 *225:43 *14928:A1 23 
9 *225:37 *14867:A 32.1971 
10 *225:14 *225:59 16.5743 
11 *225:59 *14901:B_N 27.5986 
12 *225:59 *14858:A 23 
13 *225:12 *14859:B_N 38 
14 *225:6 *14918:A1 41.7286 
*END

*D_NET *226 0.00507913
*CONN
*I *14801:B I *D sky130_fd_sc_hd__or3_1
*I *14827:A2 I *D sky130_fd_sc_hd__o31a_2
*I *14817:A2 I *D sky130_fd_sc_hd__o31a_1
*I *14959:A I *D sky130_fd_sc_hd__or3_1
*I *14799:X O *D sky130_fd_sc_hd__and2b_1
*CAP
1 *14801:B 3.31629e-05
2 *14827:A2 0
3 *14817:A2 2.34823e-05
4 *14959:A 0
5 *14799:X 0
6 *226:40 0.000195914
7 *226:23 0.000478134
8 *226:19 0.00146476
9 *226:12 0.000255188
10 *226:4 0.00142804
11 *14801:B *14801:C 5.37348e-06
12 *14817:A2 *227:23 0
13 *14817:A2 *244:34 0
14 *226:12 *233:27 0.00014411
15 *226:23 *14801:C 5.67058e-05
16 *226:23 *227:23 6.2226e-05
17 *226:40 *227:23 3.22879e-05
18 *226:40 *227:36 0.000186904
19 *226:40 *231:16 0.000247678
20 *226:40 *244:34 9.84794e-05
21 *14799:B *226:19 9.67842e-05
22 *14801:A *226:23 5.67058e-05
23 *14817:A1 *226:23 0.000173898
24 *39:35 *226:40 0
25 *39:85 *226:40 3.7122e-06
26 *214:8 *226:12 0
27 *214:29 *226:12 3.55887e-05
*RES
1 *14799:X *226:4 23 
2 *226:4 *226:12 34.4329 
3 *226:12 *14959:A 23 
4 *226:4 *226:19 14.9143 
5 *226:19 *226:23 5.98643 
6 *226:23 *14817:A2 23.4971 
7 *226:23 *226:40 35.5307 
8 *226:40 *14827:A2 23 
9 *226:19 *14801:B 23.6214 
*END

*D_NET *227 0.00213702
*CONN
*I *14827:A3 I *D sky130_fd_sc_hd__o31a_2
*I *14817:A3 I *D sky130_fd_sc_hd__o31a_1
*I *14801:C I *D sky130_fd_sc_hd__or3_1
*I *14800:X O *D sky130_fd_sc_hd__and2b_1
*CAP
1 *14827:A3 0
2 *14817:A3 0
3 *14801:C 1.70611e-05
4 *14800:X 0.000246853
5 *227:36 0.000129913
6 *227:23 0.000305464
7 *227:12 0.000192613
8 *227:10 0.000246853
9 *227:10 *239:8 0.000119421
10 *227:36 *244:34 5.67058e-05
11 *14801:A *227:23 5.50049e-05
12 *14801:B *14801:C 5.37348e-06
13 *14817:A1 *227:23 0.000185434
14 *14817:A2 *227:23 0
15 *37:75 *227:10 5.50106e-05
16 *39:31 *227:10 6.07826e-05
17 *39:35 *227:10 0.000122407
18 *39:35 *227:36 0
19 *226:23 *14801:C 5.67058e-05
20 *226:23 *227:23 6.2226e-05
21 *226:40 *227:23 3.22879e-05
22 *226:40 *227:36 0.000186904
*RES
1 *14800:X *227:10 43.6964 
2 *227:10 *227:12 15 
3 *227:12 *14801:C 23.6214 
4 *227:12 *227:23 4.45357 
5 *227:23 *14817:A3 23 
6 *227:23 *227:36 33.3557 
7 *227:36 *14827:A3 23 
*END

*D_NET *228 0.000291709
*CONN
*I *14802:A I *D sky130_fd_sc_hd__buf_4
*I *14801:X O *D sky130_fd_sc_hd__or3_1
*CAP
1 *14802:A 4.01155e-05
2 *14801:X 6.14794e-05
3 *228:8 0.000101595
4 *228:8 *239:8 0
5 *99:8 *228:8 8.85189e-05
*RES
1 *14801:X *228:8 39.2014 
2 *228:8 *14802:A 38.8493 
*END

*D_NET *229 0.0243035
*CONN
*I *14834:A2 I *D sky130_fd_sc_hd__a221oi_4
*I *14824:A2 I *D sky130_fd_sc_hd__a22oi_4
*I *14843:A1 I *D sky130_fd_sc_hd__o211a_1
*I *14844:A2 I *D sky130_fd_sc_hd__a211o_1
*I *14851:A1 I *D sky130_fd_sc_hd__o211a_1
*I *14849:A2 I *D sky130_fd_sc_hd__a21oi_1
*I *14812:A2 I *D sky130_fd_sc_hd__a21oi_1
*I *14808:A2 I *D sky130_fd_sc_hd__a21oi_2
*I *14857:A2 I *D sky130_fd_sc_hd__a21oi_2
*I *14802:X O *D sky130_fd_sc_hd__buf_4
*CAP
1 *14834:A2 0
2 *14824:A2 0
3 *14843:A1 0.000278853
4 *14844:A2 3.05027e-05
5 *14851:A1 0.000250771
6 *14849:A2 0
7 *14812:A2 0
8 *14808:A2 0
9 *14857:A2 0
10 *14802:X 0.00024367
11 *229:112 0.000965903
12 *229:65 0.000311607
13 *229:61 0.00120045
14 *229:57 0.00121407
15 *229:50 0.000274545
16 *229:42 0.00127523
17 *229:40 0.00113167
18 *229:38 0.00133178
19 *229:36 0.00203566
20 *229:20 0.00108955
21 *229:14 0.00306507
22 *229:12 0.00425485
23 *14843:A1 *245:18 0.000316281
24 *229:12 *239:8 0
25 *229:14 *234:12 0
26 *229:14 *237:12 0
27 *229:14 *246:27 0.000256767
28 *229:20 *14809:A 0.000188926
29 *229:20 *238:10 0
30 *229:20 *238:12 0
31 *229:20 *246:27 3.70187e-05
32 *229:36 *231:18 9.59828e-05
33 *229:50 *14844:A1 0
34 *229:57 *14812:A1 5.00237e-05
35 *229:112 *251:43 9.9345e-05
36 *229:112 *261:39 0.000438376
37 *14812:B1 *14844:A2 9.66668e-05
38 *14812:B1 *229:57 5.5792e-05
39 *14816:B1 *229:20 0
40 *14834:B1 *229:112 2.93747e-05
41 *14840:A *229:14 0
42 *14849:B1 *14851:A1 0.000254009
43 *14851:A2 *14851:A1 1.14154e-05
44 *14851:C1 *14851:A1 0
45 *14857:B1 *229:20 5.67058e-05
46 *14902:B *229:61 0
47 *93:35 *14843:A1 0.000186041
48 *94:14 *14844:A2 4.08664e-05
49 *94:14 *229:57 9.12489e-05
50 *94:14 *229:61 3.46013e-05
51 *96:16 *14844:A2 1.61385e-05
52 *96:16 *229:50 4.3535e-05
53 *96:16 *229:57 5.51891e-05
54 *97:12 *229:14 0
55 *99:8 *229:12 0.000222123
56 *99:8 *229:14 0.000326964
57 *99:22 *229:14 0
58 *102:12 *229:14 0
59 *105:42 *229:40 0.000246748
60 *105:93 *229:112 8.48502e-06
61 *125:33 *229:61 0
62 *125:48 *229:42 0
63 *125:48 *229:50 0
64 *131:8 *229:61 0
65 *133:8 *14851:A1 4.96717e-05
66 *133:16 *229:61 0
67 *139:12 *229:20 0
68 *147:106 *229:40 0
69 *147:106 *229:112 0
70 *151:22 *229:61 0
71 *156:19 *229:14 0.00011659
72 *156:19 *229:20 1.44546e-05
73 *157:24 *229:61 0
74 *161:12 *14843:A1 0.000181868
75 *177:12 *229:20 0
76 *185:10 *229:61 0
77 *185:30 *229:20 4.41393e-05
78 *223:53 *229:40 0.000790578
79 *223:53 *229:42 0.000595483
80 *223:53 *229:112 0.000242926
81 *223:63 *229:42 0
82 *224:10 *229:50 0
83 *224:68 *14851:A1 5.50106e-05
*RES
1 *14802:X *229:12 42.9093 
2 *229:12 *229:14 38.5286 
3 *229:14 *229:20 36.6775 
4 *229:20 *14857:A2 23 
5 *229:14 *14808:A2 38 
6 *229:12 *229:36 40.3957 
7 *229:36 *229:38 15 
8 *229:38 *229:40 10.7093 
9 *229:40 *229:42 17.0479 
10 *229:42 *229:50 18.8529 
11 *229:50 *14812:A2 23 
12 *229:50 *229:57 2.05071 
13 *229:57 *229:61 35.2171 
14 *229:61 *229:65 16.0979 
15 *229:65 *14849:A2 23 
16 *229:65 *14851:A1 28.4271 
17 *229:57 *14844:A2 24.0979 
18 *229:42 *14843:A1 45.7679 
19 *229:40 *14824:A2 38 
20 *229:38 *229:112 33.7257 
21 *229:112 *14834:A2 23 
*END

*D_NET *230 0.00187007
*CONN
*I *14828:B I *D sky130_fd_sc_hd__and3_2
*I *14804:A I *D sky130_fd_sc_hd__clkbuf_4
*I *14803:X O *D sky130_fd_sc_hd__or2b_1
*CAP
1 *14828:B 0
2 *14804:A 7.3147e-05
3 *14803:X 0.000295717
4 *230:25 0.00029941
5 *230:6 0.000668274
6 *14804:A *231:94 6.17437e-06
7 *14804:A *232:10 0
8 *230:6 *231:94 5.61255e-06
9 *230:6 *232:10 5.82909e-05
10 *230:6 *232:19 0.000211173
11 *230:6 *268:20 5.50049e-05
12 *230:25 *14828:C 8.4047e-05
13 *113:19 *230:25 7.24484e-05
14 *161:19 *230:25 4.07715e-05
*RES
1 *14803:X *230:6 27.4329 
2 *230:6 *14804:A 24.4707 
3 *230:6 *230:25 35.1579 
4 *230:25 *14828:B 23 
*END

*D_NET *231 0.0396778
*CONN
*I *14811:B I *D sky130_fd_sc_hd__and3_1
*I *14848:B I *D sky130_fd_sc_hd__and3_1
*I *14914:A I *D sky130_fd_sc_hd__nand2_1
*I *14823:A I *D sky130_fd_sc_hd__and2_2
*I *14818:B I *D sky130_fd_sc_hd__and3_1
*I *14938:A2 I *D sky130_fd_sc_hd__a31o_1
*I *14807:B I *D sky130_fd_sc_hd__and3_1
*I *14856:B I *D sky130_fd_sc_hd__and3_1
*I *14933:B I *D sky130_fd_sc_hd__and3_1
*I *14936:B I *D sky130_fd_sc_hd__and3_1
*I *14804:X O *D sky130_fd_sc_hd__clkbuf_4
*CAP
1 *14811:B 4.01156e-05
2 *14848:B 5.9248e-05
3 *14914:A 0.000373423
4 *14823:A 0.000225259
5 *14818:B 0
6 *14938:A2 2.08406e-05
7 *14807:B 0.000401216
8 *14856:B 0
9 *14933:B 0
10 *14936:B 0.000485982
11 *14804:X 0
12 *231:135 0.0011664
13 *231:131 0.000925691
14 *231:127 0.00225555
15 *231:125 0.00222354
16 *231:119 0.00113932
17 *231:94 0.00143233
18 *231:60 0.000677785
19 *231:54 0.00168491
20 *231:48 0.000626746
21 *231:41 0.0011229
22 *231:31 0.00251802
23 *231:29 0.00139513
24 *231:18 0.00195923
25 *231:16 0.00212319
26 *231:8 0.000774423
27 *231:4 0.000312061
28 *14807:B *14807:C 0
29 *14807:B *260:46 6.25829e-05
30 *14807:B *267:55 0.000245345
31 *14823:A *14823:B 0.000560359
32 *14823:A *232:21 6.16531e-05
33 *14823:A *242:38 4.68153e-05
34 *14848:B *14848:C 3.85863e-06
35 *14848:B *247:28 3.98372e-06
36 *14914:A *14914:B 5.90675e-06
37 *14914:A *233:72 5.70419e-05
38 *14914:A *233:85 0.000183741
39 *14914:A *238:51 0.000313249
40 *14936:B *14936:A 3.71251e-05
41 *14936:B *14936:C 0.000243976
42 *14938:A2 *14938:A3 3.22879e-05
43 *14938:A2 *233:50 7.53384e-06
44 *14938:A2 *255:25 9.84851e-05
45 *231:8 *232:10 1.93725e-05
46 *231:8 *232:19 6.09219e-05
47 *231:16 *14839:A1 0.000195248
48 *231:16 *232:10 9.61128e-05
49 *231:16 *242:38 8.22421e-06
50 *231:16 *266:8 0.000550029
51 *231:18 *14936:C 8.48502e-06
52 *231:18 *233:154 9.67842e-05
53 *231:31 *15003:CLK 0.000626411
54 *231:31 *233:35 0
55 *231:31 *239:62 0.000383494
56 *231:41 *233:35 0
57 *231:41 *233:134 0.000444192
58 *231:41 *238:144 0
59 *231:41 *253:40 0
60 *231:54 *14938:A3 9.58444e-05
61 *231:54 *14938:B1 9.45591e-05
62 *231:54 *233:50 0.00051218
63 *231:54 *255:25 4.00259e-06
64 *231:60 *233:52 0
65 *231:60 *233:58 0
66 *231:60 *233:70 6.16531e-05
67 *231:60 *253:40 0
68 *231:60 *260:46 0.000814667
69 *231:60 *267:55 9.79642e-05
70 *231:94 *232:19 1.59094e-05
71 *231:94 *232:21 0.000158229
72 *231:119 *233:10 0
73 *231:119 *242:24 0.00061458
74 *231:125 *244:20 3.35885e-06
75 *231:127 *242:64 0
76 *231:127 *244:20 0.000543637
77 *231:127 *255:52 0.000163643
78 *231:131 *233:100 5.83345e-06
79 *231:131 *255:52 5.50106e-05
80 *231:135 *233:85 0.000118174
81 *231:135 *233:100 0.00136326
82 *14803:B_N *231:16 2.68708e-05
83 *14804:A *231:94 6.17437e-06
84 *14830:A1 *231:119 0.000474957
85 *14830:A2 *231:119 5.79042e-05
86 *14830:B1 *231:119 2.02872e-05
87 *14830:C1 *231:119 0.000268047
88 *14836:B *231:127 0
89 *14879:A *231:127 2.19786e-05
90 *14879:A *231:135 2.1199e-05
91 *14893:A1 *231:125 2.24608e-05
92 *14893:A1 *231:127 2.10968e-05
93 *14894:B1 *231:119 5.3304e-05
94 *14894:C1 *231:119 8.96154e-05
95 *14902:A *231:135 8.8983e-05
96 *14911:B *231:135 0.000100892
97 *14942:B *231:135 0.00023219
98 *14944:A1 *14807:B 1.94812e-05
99 *14956:A1 *231:18 0.000241539
100 *14977:A *231:31 0.000322271
101 *32:8 *231:31 8.62876e-05
102 *37:31 *231:18 0.000214016
103 *39:35 *231:16 0
104 *39:85 *231:16 0.000185755
105 *49:12 *231:31 6.42942e-05
106 *76:10 *231:31 7.03766e-05
107 *93:8 *231:135 4.7869e-05
108 *93:35 *231:127 1.79317e-05
109 *95:10 *231:127 0.000144243
110 *99:8 *231:16 0
111 *100:8 *231:16 0
112 *101:24 *231:16 1.4471e-05
113 *102:12 *231:16 5.56306e-05
114 *109:14 *231:119 3.64736e-05
115 *109:33 *231:119 2.60332e-05
116 *110:26 *231:119 2.93845e-05
117 *112:17 *231:119 9.62764e-05
118 *115:8 *231:127 0.000168744
119 *118:10 *231:127 0.000216577
120 *125:8 *231:127 2.71831e-05
121 *125:33 *231:127 0.000225435
122 *130:8 *231:135 8.85189e-05
123 *147:106 *231:127 0
124 *157:16 *14811:B 0
125 *157:16 *231:131 1.94693e-05
126 *157:24 *231:135 0
127 *161:19 *14823:A 1.38245e-05
128 *170:8 *231:127 4.334e-05
129 *174:18 *231:119 9.5877e-05
130 *174:26 *231:127 0
131 *185:16 *14914:A 0
132 *185:16 *231:135 0
133 *205:19 *14807:B 0
134 *205:34 *14807:B 0
135 *206:10 *231:60 0.000135037
136 *221:81 *231:31 0.000510106
137 *221:87 *231:31 0.00103196
138 *222:70 *231:41 0
139 *222:81 *231:41 0
140 *222:92 *231:31 0
141 *222:92 *231:41 0
142 *223:16 *14823:A 5.50049e-05
143 *223:33 *14823:A 0.000359332
144 *224:10 *231:127 0
145 *224:54 *231:135 4.07715e-05
146 *224:68 *231:135 0
147 *224:134 *231:127 0
148 *226:40 *231:16 0.000247678
149 *229:36 *231:18 9.59828e-05
150 *230:6 *231:94 5.61255e-06
*RES
1 *14804:X *231:4 23 
2 *231:4 *231:8 2.54786 
3 *231:8 *231:16 44.8729 
4 *231:16 *231:18 25.8721 
5 *231:18 *14936:B 33.1707 
6 *231:18 *231:29 15 
7 *231:29 *231:31 39.9371 
8 *231:31 *231:41 35.4243 
9 *231:41 *14933:B 23 
10 *231:31 *231:48 15 
11 *231:48 *231:54 24.9221 
12 *231:54 *231:60 30.805 
13 *231:60 *14856:B 23 
14 *231:54 *14807:B 46.1614 
15 *231:48 *14938:A2 24.0979 
16 *231:8 *14818:B 23 
17 *231:4 *231:94 18.3557 
18 *231:94 *14823:A 45.7471 
19 *231:94 *231:119 40.0229 
20 *231:119 *231:125 16.4189 
21 *231:125 *231:127 44.6911 
22 *231:127 *231:131 17.5271 
23 *231:131 *231:135 35.9214 
24 *231:135 *14914:A 46.8864 
25 *231:135 *14848:B 38.6214 
26 *231:131 *14811:B 23.8493 
*END

*D_NET *232 0.00448078
*CONN
*I *14828:C I *D sky130_fd_sc_hd__and3_2
*I *14806:A I *D sky130_fd_sc_hd__clkbuf_4
*I *14823:B I *D sky130_fd_sc_hd__and2_2
*I *14818:C I *D sky130_fd_sc_hd__and3_1
*I *14805:X O *D sky130_fd_sc_hd__and2b_1
*CAP
1 *14828:C 0.000227899
2 *14806:A 2.32701e-05
3 *14823:B 0.000163992
4 *14818:C 0
5 *14805:X 0.000201594
6 *232:21 0.000297589
7 *232:19 0.000403309
8 *232:10 0.000266676
9 *14823:B *261:10 0.000530622
10 *14828:C *262:22 0.00010018
11 *232:10 *268:20 3.22879e-05
12 *14803:A *232:10 5.41288e-05
13 *14803:B_N *232:10 5.50049e-05
14 *14804:A *232:10 0
15 *14823:A *14823:B 0.000560359
16 *14823:A *232:21 6.16531e-05
17 *14830:A1 *14806:A 5.3304e-05
18 *109:14 *14806:A 5.3304e-05
19 *113:19 *14828:C 6.68919e-05
20 *161:19 *14823:B 0.000159643
21 *161:19 *14828:C 0.000100778
22 *161:19 *232:21 0.000289973
23 *223:16 *14823:B 2.4754e-05
24 *223:33 *14823:B 4.95081e-05
25 *230:6 *232:10 5.82909e-05
26 *230:6 *232:19 0.000211173
27 *230:25 *14828:C 8.4047e-05
28 *231:8 *232:10 1.93725e-05
29 *231:8 *232:19 6.09219e-05
30 *231:16 *232:10 9.61128e-05
31 *231:94 *232:19 1.59094e-05
32 *231:94 *232:21 0.000158229
*RES
1 *14805:X *232:10 28.5929 
2 *232:10 *14818:C 23 
3 *232:10 *232:19 17.3614 
4 *232:19 *232:21 4.01857 
5 *232:21 *14823:B 46.12 
6 *232:21 *14806:A 38.6214 
7 *232:19 *14828:C 42.0807 
*END

*D_NET *233 0.0344489
*CONN
*I *14956:A2 I *D sky130_fd_sc_hd__a21bo_1
*I *14936:C I *D sky130_fd_sc_hd__and3_1
*I *14807:C I *D sky130_fd_sc_hd__and3_1
*I *14933:C I *D sky130_fd_sc_hd__and3_1
*I *14856:C I *D sky130_fd_sc_hd__and3_1
*I *14811:C I *D sky130_fd_sc_hd__and3_1
*I *14848:C I *D sky130_fd_sc_hd__and3_1
*I *14914:B I *D sky130_fd_sc_hd__nand2_1
*I *14938:A3 I *D sky130_fd_sc_hd__a31o_1
*I *14963:A1_N I *D sky130_fd_sc_hd__o2bb2a_1
*I *14806:X O *D sky130_fd_sc_hd__clkbuf_4
*CAP
1 *14956:A2 0
2 *14936:C 0.000707085
3 *14807:C 0.000405797
4 *14933:C 0
5 *14856:C 9.34015e-05
6 *14811:C 0
7 *14848:C 1.15303e-05
8 *14914:B 2.14194e-05
9 *14938:A3 2.33337e-05
10 *14963:A1_N 5.83469e-05
11 *14806:X 0.00167504
12 *233:154 0.000741551
13 *233:134 0.000814431
14 *233:100 0.000561719
15 *233:85 0.00106227
16 *233:72 0.00284041
17 *233:70 0.00267488
18 *233:58 0.000629023
19 *233:52 0.00144677
20 *233:50 0.000966701
21 *233:37 0.0001426
22 *233:35 0.00174093
23 *233:27 0.00216948
24 *233:16 0.000550282
25 *233:10 0.0017729
26 *14807:C *14807:A 0.00014196
27 *14848:C *247:28 1.95448e-05
28 *14856:C *14856:A 1.32314e-05
29 *14936:C *14936:A 0.00010604
30 *233:35 *238:144 0.000246748
31 *233:35 *238:166 0.000367754
32 *233:35 *253:40 0
33 *233:50 *14938:B1 0.000436762
34 *233:50 *255:25 1.22822e-05
35 *233:50 *255:38 2.32004e-05
36 *233:58 *14856:A 0.000171296
37 *233:58 *272:31 5.50106e-05
38 *233:70 *238:112 8.48502e-06
39 *233:70 *253:40 0
40 *233:70 *267:55 0.000271382
41 *233:72 *238:112 0.000302615
42 *233:85 *238:51 0.000355023
43 *233:100 *247:14 3.61397e-05
44 *233:100 *247:28 6.53491e-05
45 *233:134 *260:61 0
46 *14796:B *233:10 6.51746e-05
47 *14800:B *233:10 0.000268873
48 *14807:B *14807:C 0
49 *14830:A1 *233:10 0.000135415
50 *14848:B *14848:C 3.85863e-06
51 *14914:A *14914:B 5.90675e-06
52 *14914:A *233:72 5.70419e-05
53 *14914:A *233:85 0.000183741
54 *14923:A2 *233:72 1.57571e-05
55 *14923:A3 *233:72 3.16784e-05
56 *14923:C1 *233:72 0.000185434
57 *14936:B *14936:C 0.000243976
58 *14938:A2 *14938:A3 3.22879e-05
59 *14938:A2 *233:50 7.53384e-06
60 *14940:B *233:58 0.000138718
61 *14941:B1 *233:72 5.67058e-05
62 *14943:A2 *233:85 0
63 *14944:A1 *14807:C 4.9356e-05
64 *14956:A1 *233:154 5.50049e-05
65 *14958:B *233:10 9.84794e-05
66 *14963:A2_N *14963:A1_N 5.12254e-05
67 *14963:A2_N *233:16 3.06403e-05
68 *14977:A *233:35 0.000322271
69 *15008:D *233:70 0.000135037
70 *36:47 *233:10 0.000137651
71 *36:87 *233:10 0.000916687
72 *37:10 *233:27 0
73 *39:64 *233:10 0.000185434
74 *39:85 *233:10 0.0002263
75 *40:10 *233:35 0.00019747
76 *46:10 *233:35 3.81391e-05
77 *49:12 *233:35 4.91264e-05
78 *70:14 *233:35 5.80963e-05
79 *76:10 *233:35 7.03766e-05
80 *78:10 *233:35 0.000138718
81 *133:28 *233:72 5.50106e-05
82 *180:36 *233:35 0
83 *185:16 *233:85 0
84 *195:10 *233:72 5.3304e-05
85 *205:8 *233:134 2.64616e-05
86 *205:19 *14807:C 0.000390752
87 *205:19 *233:52 0.0008525
88 *205:19 *233:58 3.70187e-05
89 *206:10 *14856:C 4.26957e-05
90 *206:10 *233:58 4.9662e-05
91 *214:8 *233:27 0
92 *214:8 *233:35 0
93 *214:29 *233:10 4.03402e-06
94 *214:29 *233:16 2.47861e-05
95 *214:29 *233:27 3.57136e-05
96 *215:6 *233:10 4.38068e-06
97 *215:21 *233:27 4.08537e-05
98 *221:81 *233:27 0.000415405
99 *221:81 *233:35 0.000144812
100 *221:87 *233:35 0.00031299
101 *224:54 *233:100 0.00100665
102 *224:60 *233:100 0.000166513
103 *226:12 *233:27 0.00014411
104 *231:18 *14936:C 8.48502e-06
105 *231:18 *233:154 9.67842e-05
106 *231:31 *233:35 0
107 *231:41 *233:35 0
108 *231:41 *233:134 0.000444192
109 *231:54 *14938:A3 9.58444e-05
110 *231:54 *233:50 0.00051218
111 *231:60 *233:52 0
112 *231:60 *233:58 0
113 *231:60 *233:70 6.16531e-05
114 *231:119 *233:10 0
115 *231:131 *233:100 5.83345e-06
116 *231:135 *233:85 0.000118174
117 *231:135 *233:100 0.00136326
*RES
1 *14806:X *233:10 49.6282 
2 *233:10 *233:16 2.33036 
3 *233:16 *14963:A1_N 24.1134 
4 *233:16 *233:27 26.0614 
5 *233:27 *233:35 42.1536 
6 *233:35 *233:37 15 
7 *233:37 *14938:A3 24.1186 
8 *233:37 *233:50 20.8621 
9 *233:50 *233:52 11.4136 
10 *233:52 *233:58 19.785 
11 *233:58 *233:70 36.7114 
12 *233:70 *233:72 40.165 
13 *233:72 *14914:B 23.4971 
14 *233:72 *233:85 24.8807 
15 *233:85 *14848:C 38.2279 
16 *233:85 *233:100 34.1607 
17 *233:100 *14811:C 23 
18 *233:58 *14856:C 24.8229 
19 *233:52 *233:134 32.8971 
20 *233:134 *14933:C 23 
21 *233:50 *14807:C 46.0371 
22 *233:27 *233:154 16.0979 
23 *233:154 *14936:C 34.7243 
24 *233:154 *14956:A2 23 
*END

*D_NET *234 0.00349371
*CONN
*I *14904:B1 I *D sky130_fd_sc_hd__a211o_1
*I *14808:B1 I *D sky130_fd_sc_hd__a21oi_2
*I *14807:X O *D sky130_fd_sc_hd__and3_1
*CAP
1 *14904:B1 0.000243179
2 *14808:B1 0
3 *14807:X 0.000406072
4 *234:12 0.000603537
5 *234:8 0.000766431
6 *14904:B1 *14808:A1 2.93747e-05
7 *14904:B1 *14816:A1 0
8 *14904:B1 *235:23 8.96558e-05
9 *234:12 *246:27 0
10 *234:12 *255:38 6.4393e-05
11 *14904:A1 *14904:B1 7.52566e-05
12 *14944:A1 *234:8 0.000171898
13 *89:10 *234:12 6.78359e-05
14 *155:8 *234:12 0
15 *155:10 *234:12 0
16 *155:34 *234:8 0.00044458
17 *178:18 *14904:B1 0.000310647
18 *178:18 *234:8 1.03836e-05
19 *178:35 *14904:B1 0.000210461
20 *229:14 *234:12 0
*RES
1 *14807:X *234:8 46.7207 
2 *234:8 *234:12 21.1314 
3 *234:12 *14808:B1 23 
4 *234:12 *14904:B1 30.2086 
*END

*D_NET *235 0.00298681
*CONN
*I *14816:A1 I *D sky130_fd_sc_hd__o21ai_2
*I *14921:B_N I *D sky130_fd_sc_hd__or2b_1
*I *14810:A I *D sky130_fd_sc_hd__xor2_1
*I *14903:A_N I *D sky130_fd_sc_hd__and2b_1
*I *14808:Y O *D sky130_fd_sc_hd__a21oi_2
*CAP
1 *14816:A1 5.54257e-05
2 *14921:B_N 4.86797e-05
3 *14810:A 0
4 *14903:A_N 0
5 *14808:Y 0
6 *235:35 0.000250936
7 *235:23 0.000510404
8 *235:14 0.000244312
9 *235:4 0.000497034
10 *14921:B_N *236:42 8.49486e-05
11 *235:14 *14809:A 0.000314819
12 *235:23 *14808:A1 5.50049e-05
13 *235:35 *236:36 0
14 *235:35 *236:42 6.67149e-05
15 *235:35 *255:46 2.25812e-05
16 *14816:B1 *14816:A1 8.43466e-05
17 *14816:B1 *235:23 9.84851e-05
18 *14816:B1 *235:35 3.9779e-05
19 *14904:A1 *235:23 3.22879e-05
20 *14904:B1 *14816:A1 0
21 *14904:B1 *235:23 8.96558e-05
22 *15022:RESET_B *14921:B_N 0.0002263
23 *92:8 *14921:B_N 3.22879e-05
24 *97:14 *235:35 5.13411e-05
25 *177:12 *14816:A1 5.3304e-05
26 *177:12 *235:23 5.50049e-05
27 *177:12 *235:35 3.47781e-05
28 *178:35 *14816:A1 1.14876e-05
29 *178:35 *235:23 7.44161e-06
30 *178:35 *235:35 1.94522e-05
*RES
1 *14808:Y *235:4 23 
2 *235:4 *235:14 34.7021 
3 *235:14 *14903:A_N 23 
4 *235:4 *235:23 5.40643 
5 *235:23 *235:35 34.5779 
6 *235:35 *14810:A 23 
7 *235:35 *14921:B_N 25.5271 
8 *235:23 *14816:A1 24.595 
*END

*D_NET *236 0.003707
*CONN
*I *14921:A I *D sky130_fd_sc_hd__or2b_1
*I *14810:B I *D sky130_fd_sc_hd__xor2_1
*I *14877:B1 I *D sky130_fd_sc_hd__a21o_1
*I *14816:A2 I *D sky130_fd_sc_hd__o21ai_2
*I *14903:B I *D sky130_fd_sc_hd__and2b_1
*I *14809:X O *D sky130_fd_sc_hd__and2_1
*CAP
1 *14921:A 3.3552e-05
2 *14810:B 0
3 *14877:B1 0
4 *14816:A2 0
5 *14903:B 0.000159066
6 *14809:X 7.58157e-05
7 *236:52 0.000327943
8 *236:42 0.000474862
9 *236:36 0.000276655
10 *236:25 0.000166846
11 *236:6 0.000305545
12 *14903:B *14809:A 9.75779e-05
13 *236:25 *237:23 6.6869e-05
14 *236:36 *237:23 8.51225e-05
15 *236:52 *237:23 0
16 *236:52 *255:46 0.000191157
17 *14877:A1 *236:52 0.000354122
18 *14877:A2 *236:52 0.000182826
19 *14921:B_N *236:42 8.49486e-05
20 *92:8 *14921:A 5.50106e-05
21 *92:8 *236:42 5.50049e-05
22 *129:22 *236:52 0
23 *155:34 *236:52 7.42621e-05
24 *156:6 *236:52 0.000209554
25 *177:25 *14903:B 0.00010718
26 *178:18 *236:52 0
27 *178:35 *236:25 0.000140949
28 *178:35 *236:36 5.55911e-05
29 *193:12 *236:42 0
30 *224:22 *14903:B 1.32314e-05
31 *224:22 *236:6 4.6595e-05
32 *235:35 *236:36 0
33 *235:35 *236:42 6.67149e-05
*RES
1 *14809:X *236:6 24.0979 
2 *236:6 *14903:B 27.0393 
3 *236:6 *236:25 16.9057 
4 *236:25 *14816:A2 38 
5 *236:25 *236:36 17.2579 
6 *236:36 *236:42 3.045 
7 *236:42 *236:52 38.9693 
8 *236:52 *14877:B1 23 
9 *236:42 *14810:B 23 
10 *236:36 *14921:A 23.6214 
*END

*D_NET *237 0.00833478
*CONN
*I *15028:A I *D sky130_fd_sc_hd__clkbuf_16
*I *15029:A I *D sky130_fd_sc_hd__clkbuf_16
*I *15027:X O *D sky130_fd_sc_hd__clkbuf_16
*CAP
1 *15028:A 0.000123262
2 *15029:A 0
3 *15027:X 0.000404982
4 *237:23 0.00131793
5 *237:12 0.00112355
6 *237:6 0.00272319
7 *237:12 *14839:A1 0.000381852
8 *237:23 *255:46 0
9 *14872:A1 *237:12 0
10 *14881:A1 *237:12 0
11 *19:9 *237:12 0.000102971
12 *99:22 *237:12 0.000296017
13 *102:12 *237:12 0.000212248
14 *103:33 *237:23 0.00055001
15 *121:10 *237:12 0.000179931
16 *129:22 *237:23 7.03766e-05
17 *154:10 *237:23 0.000319731
18 *160:8 *237:12 0
19 *161:10 *237:12 0
20 *161:10 *237:23 0.000100944
21 *178:35 *237:23 8.2338e-05
22 *193:12 *237:23 0.00019346
23 *229:14 *237:12 0
24 *236:25 *237:23 6.6869e-05
25 *236:36 *237:23 8.51225e-05
26 *236:52 *237:23 0
*RES
1 *15027:X *237:6 29.3386 
2 *237:6 *237:12 40.3336 
3 *237:12 *15029:A 38 
4 *237:6 *237:23 45.4293 
5 *237:23 *15028:A 40.0507 
*END

*D_NET *238 0.0291696
*CONN
*I *15008:CLK I *D sky130_fd_sc_hd__dfrtp_4
*I *15006:CLK I *D sky130_fd_sc_hd__dfrtp_4
*I *15022:CLK I *D sky130_fd_sc_hd__dfrtp_4
*I *15009:CLK I *D sky130_fd_sc_hd__dfrtp_4
*I *15012:CLK I *D sky130_fd_sc_hd__dfrtp_4
*I *15016:CLK I *D sky130_fd_sc_hd__dfrtp_4
*I *15014:CLK I *D sky130_fd_sc_hd__dfrtp_4
*I *15021:CLK I *D sky130_fd_sc_hd__dfrtp_4
*I *15005:CLK I *D sky130_fd_sc_hd__dfrtp_2
*I *15023:CLK I *D sky130_fd_sc_hd__dfrtp_4
*I *15007:CLK I *D sky130_fd_sc_hd__dfrtp_4
*I *15024:CLK I *D sky130_fd_sc_hd__dfrtp_4
*I *15015:CLK I *D sky130_fd_sc_hd__dfrtp_4
*I *15013:CLK I *D sky130_fd_sc_hd__dfrtp_4
*I *15028:X O *D sky130_fd_sc_hd__clkbuf_16
*CAP
1 *15008:CLK 0
2 *15006:CLK 0
3 *15022:CLK 0.000524747
4 *15009:CLK 0
5 *15012:CLK 0.000290578
6 *15016:CLK 0
7 *15014:CLK 0.000136831
8 *15021:CLK 0
9 *15005:CLK 0.000195843
10 *15023:CLK 0
11 *15007:CLK 0
12 *15024:CLK 8.79339e-05
13 *15015:CLK 0
14 *15013:CLK 0
15 *15028:X 0.000240168
16 *238:166 0.000910457
17 *238:146 0.000524747
18 *238:144 0.00149488
19 *238:131 0.0016782
20 *238:120 0.00047583
21 *238:114 0.00127902
22 *238:112 0.000294783
23 *238:90 0.000222405
24 *238:75 0.00101222
25 *238:64 0.00119929
26 *238:51 0.00159169
27 *238:36 0.00121788
28 *238:27 0.00044743
29 *238:23 0.00221879
30 *238:16 0.00219378
31 *238:12 0.00125698
32 *238:10 0.00137626
33 *15005:CLK *14811:A 0.00012003
34 *15014:CLK *250:39 5.67058e-05
35 *15022:CLK *246:14 0.000354
36 *15024:CLK *252:20 0.000143655
37 *238:10 *260:61 0
38 *238:12 *14932:B2 0
39 *238:12 *250:39 0
40 *238:16 *14932:B2 0
41 *238:64 *269:21 0.000318493
42 *238:75 *269:19 7.55491e-05
43 *238:75 *269:21 0.000443242
44 *238:90 *14811:A 2.98648e-05
45 *238:90 *269:6 3.71369e-05
46 *238:120 *267:55 0.000641581
47 *238:131 *267:55 0.000605502
48 *238:144 *253:40 0
49 *238:166 *253:40 0
50 *238:166 *270:30 6.37171e-05
51 *14914:A *238:51 0.000313249
52 *14915:B *238:51 0
53 *14941:A4 *238:112 0.000180218
54 *14941:A4 *238:120 0.000231212
55 *14941:A4 *238:131 3.70187e-05
56 *14941:B1 *238:112 5.50106e-05
57 *14984:A *15012:CLK 5.50106e-05
58 *15007:D *238:64 5.19297e-05
59 *15008:D *238:112 2.64616e-05
60 *15012:RESET_B *15012:CLK 3.34129e-05
61 *15016:D *238:120 0.000491451
62 *48:10 *238:75 6.48049e-05
63 *48:10 *238:90 6.07076e-05
64 *56:10 *15014:CLK 3.71251e-05
65 *56:10 *238:16 0
66 *72:6 *15005:CLK 8.1796e-05
67 *74:8 *238:64 0
68 *80:10 *238:12 4.83941e-05
69 *80:10 *238:16 7.03214e-05
70 *82:8 *238:36 4.58924e-05
71 *82:8 *238:51 2.19539e-05
72 *91:10 *238:51 0
73 *138:8 *238:131 4.95339e-05
74 *148:10 *238:120 0.000382564
75 *149:10 *238:51 0.000382574
76 *155:10 *238:120 0
77 *175:45 *238:12 8.26569e-05
78 *180:52 *238:131 0.000111148
79 *180:69 *238:131 0
80 *180:80 *238:10 1.4471e-05
81 *180:80 *238:12 6.18339e-05
82 *180:80 *238:112 0.000267167
83 *180:84 *238:12 0.000237786
84 *185:16 *238:51 0.000349386
85 *187:8 *238:51 0
86 *188:8 *238:51 3.56537e-05
87 *206:10 *238:131 6.7177e-06
88 *220:64 *238:90 0
89 *222:22 *238:27 5.56203e-05
90 *222:28 *15014:CLK 8.82669e-05
91 *222:36 *238:16 9.74235e-05
92 *224:80 *238:51 0
93 *229:20 *238:10 0
94 *229:20 *238:12 0
95 *231:41 *238:144 0
96 *233:35 *238:144 0.000246748
97 *233:35 *238:166 0.000367754
98 *233:70 *238:112 8.48502e-06
99 *233:72 *238:112 0.000302615
100 *233:85 *238:51 0.000355023
*RES
1 *15028:X *238:10 41.3557 
2 *238:10 *238:12 17.0479 
3 *238:12 *238:16 20.7793 
4 *238:16 *15013:CLK 23 
5 *238:16 *238:23 35.4007 
6 *238:23 *238:27 20.7793 
7 *238:27 *15015:CLK 38 
8 *238:27 *238:36 2.96214 
9 *238:36 *15024:CLK 40.0507 
10 *238:36 *238:51 38.9043 
11 *238:51 *15007:CLK 23 
12 *238:51 *238:64 28.6507 
13 *238:64 *15023:CLK 38 
14 *238:64 *238:75 29.5829 
15 *238:75 *15005:CLK 27.9093 
16 *238:75 *238:90 34.6607 
17 *238:90 *15021:CLK 23 
18 *238:12 *15014:CLK 41.0243 
19 *238:10 *238:112 23.265 
20 *238:112 *238:114 15 
21 *238:114 *238:120 30.4114 
22 *238:120 *15016:CLK 23 
23 *238:114 *238:131 31.0121 
24 *238:131 *15012:CLK 28.3857 
25 *238:131 *238:144 26.5586 
26 *238:144 *238:146 15 
27 *238:146 *15009:CLK 23 
28 *238:146 *15022:CLK 33.6264 
29 *238:144 *238:166 29.1686 
30 *238:166 *15006:CLK 23 
31 *238:112 *15008:CLK 23 
*END

*D_NET *239 0.0277157
*CONN
*I *15004:CLK I *D sky130_fd_sc_hd__dfrtp_4
*I *15017:CLK I *D sky130_fd_sc_hd__dfrtp_4
*I *15018:CLK I *D sky130_fd_sc_hd__dfrtp_4
*I *15001:CLK I *D sky130_fd_sc_hd__dfrtp_4
*I *15019:CLK I *D sky130_fd_sc_hd__dfrtp_4
*I *15020:CLK I *D sky130_fd_sc_hd__dfrtp_4
*I *15002:CLK I *D sky130_fd_sc_hd__dfrtp_4
*I *15000:CLK I *D sky130_fd_sc_hd__dfrtp_4
*I *14999:CLK I *D sky130_fd_sc_hd__dfrtp_4
*I *14998:CLK I *D sky130_fd_sc_hd__dfrtp_4
*I *15011:CLK I *D sky130_fd_sc_hd__dfrtp_2
*I *15003:CLK I *D sky130_fd_sc_hd__dfrtp_4
*I *14997:CLK I *D sky130_fd_sc_hd__dfrtp_4
*I *15010:CLK I *D sky130_fd_sc_hd__dfrtp_4
*I *15029:X O *D sky130_fd_sc_hd__clkbuf_16
*CAP
1 *15004:CLK 0.000128145
2 *15017:CLK 0.00010679
3 *15018:CLK 3.00574e-05
4 *15001:CLK 6.50946e-05
5 *15019:CLK 0.000185522
6 *15020:CLK 0
7 *15002:CLK 0
8 *15000:CLK 0
9 *14999:CLK 0
10 *14998:CLK 0
11 *15011:CLK 4.11597e-05
12 *15003:CLK 0.000215988
13 *14997:CLK 4.01155e-05
14 *15010:CLK 0
15 *15029:X 0
16 *239:139 0.000894342
17 *239:137 0.000808017
18 *239:135 0.000959955
19 *239:122 0.00135441
20 *239:118 0.00112505
21 *239:103 0.00154787
22 *239:99 0.00148994
23 *239:62 0.000848648
24 *239:49 0.00088717
25 *239:36 0.00126701
26 *239:32 0.00147352
27 *239:26 0.00162988
28 *239:12 0.00165047
29 *239:8 0.00183141
30 *239:6 0.00104525
31 *15001:CLK *251:12 4.96717e-05
32 *15018:CLK *241:12 1.59094e-05
33 *15018:CLK *242:16 5.3304e-05
34 *239:8 *260:14 0
35 *239:32 *259:8 0
36 *239:36 *259:8 0
37 *239:118 *262:10 1.32314e-05
38 *239:118 *262:16 0.000382583
39 *239:122 *244:14 5.98028e-05
40 *239:135 *244:14 0.000381875
41 *239:139 *14834:A1 0
42 *239:139 *251:18 0
43 *239:139 *251:43 0
44 *14819:B *239:8 6.70914e-05
45 *14909:D *15019:CLK 0
46 *14909:D *239:139 0
47 *14997:D *239:62 4.12995e-05
48 *14999:D *239:26 7.45969e-05
49 *15002:D *239:118 0.00018431
50 *15017:D *15017:CLK 5.50106e-05
51 *33:8 *239:32 0
52 *33:8 *239:36 0
53 *35:10 *239:26 3.56537e-05
54 *38:35 *239:8 5.72729e-05
55 *39:8 *239:8 0.000169683
56 *39:12 *239:8 0.000429602
57 *39:29 *239:8 0
58 *39:31 *239:8 0
59 *63:12 *239:135 0
60 *68:10 *15019:CLK 2.64616e-05
61 *71:10 *15004:CLK 6.63801e-05
62 *71:10 *239:99 5.61311e-05
63 *86:6 *15019:CLK 2.93747e-05
64 *99:8 *239:8 0
65 *105:93 *239:139 0
66 *113:10 *239:8 4.23714e-05
67 *147:129 *239:139 0
68 *161:29 *239:122 2.32101e-05
69 *182:8 *239:139 0
70 *204:8 *239:36 0
71 *205:42 *239:26 0
72 *205:46 *239:12 0.00046312
73 *205:50 *239:122 0.000141052
74 *205:63 *239:122 0.000967969
75 *212:10 *239:118 0.000174417
76 *213:8 *15019:CLK 0.000183898
77 *220:123 *239:135 0
78 *221:10 *15019:CLK 0.000210668
79 *221:10 *239:135 0.000169683
80 *221:10 *239:137 0.000216712
81 *221:10 *239:139 0.00129698
82 *221:14 *15019:CLK 0.000222113
83 *221:38 *239:135 0.000376996
84 *222:92 *15003:CLK 0.000195638
85 *222:111 *15011:CLK 2.64616e-05
86 *227:10 *239:8 0.000119421
87 *228:8 *239:8 0
88 *229:12 *239:8 0
89 *231:31 *15003:CLK 0.000626411
90 *231:31 *239:62 0.000383494
*RES
1 *15029:X *239:6 38 
2 *239:6 *239:8 21.9779 
3 *239:8 *239:12 26.1029 
4 *239:12 *239:26 47.2343 
5 *239:26 *239:32 23.7829 
6 *239:32 *239:36 34.5129 
7 *239:36 *15010:CLK 23 
8 *239:36 *239:49 34.9093 
9 *239:49 *14997:CLK 23.8493 
10 *239:49 *239:62 25.4607 
11 *239:62 *15003:CLK 46.2443 
12 *239:62 *15011:CLK 38.6214 
13 *239:32 *14998:CLK 38 
14 *239:26 *14999:CLK 23 
15 *239:12 *15000:CLK 23 
16 *239:8 *239:99 5.77929 
17 *239:99 *239:103 33.7257 
18 *239:103 *15002:CLK 23 
19 *239:103 *239:118 42.3871 
20 *239:118 *239:122 14.935 
21 *239:122 *15020:CLK 23 
22 *239:122 *239:135 32.9386 
23 *239:135 *239:137 2.96214 
24 *239:137 *239:139 17.0479 
25 *239:139 *15019:CLK 44.4007 
26 *239:139 *15001:CLK 39.0979 
27 *239:137 *15018:CLK 38.6214 
28 *239:135 *15017:CLK 39.5743 
29 *239:99 *15004:CLK 40.9621 
*END

*D_NET *240 0.0127021
*CONN
*I *14966:A I *D sky130_fd_sc_hd__buf_4
*I *15034:X O *D sky130_fd_sc_hd__buf_1
*CAP
1 *14966:A 0
2 *15034:X 0
3 *240:12 0.000141654
4 *240:6 0.00632546
5 *240:4 0.00618381
6 *31:15 *240:6 5.12254e-05
*RES
1 *15034:X *240:4 23 
2 *240:4 *240:6 105.436 
3 *240:6 *240:12 32.61 
4 *240:12 *14966:A 23 
*END

*D_NET *241 0.0267477
*CONN
*I *15038:A I *D sky130_fd_sc_hd__clkbuf_4
*I *14832:A I *D sky130_fd_sc_hd__nor2_2
*I *14907:A1 I *D sky130_fd_sc_hd__a211o_1
*I *14834:A1 I *D sky130_fd_sc_hd__a221oi_4
*I *14900:A1 I *D sky130_fd_sc_hd__a21oi_1
*I *15017:Q O *D sky130_fd_sc_hd__dfrtp_4
*CAP
1 *15038:A 0
2 *14832:A 2.14194e-05
3 *14907:A1 1.50079e-05
4 *14834:A1 0.000124788
5 *14900:A1 0
6 *15017:Q 0
7 *241:58 0.00870277
8 *241:56 0.00870277
9 *241:54 0.00240255
10 *241:27 0.000443983
11 *241:21 0.000396728
12 *241:12 0.00127223
13 *241:4 0.00360365
14 *241:12 *242:16 0.000395878
15 *241:12 *242:71 9.84794e-05
16 *14900:B1 *14832:A 0
17 *14900:B1 *241:12 3.53115e-05
18 *14900:B1 *241:21 5.25848e-05
19 *14900:B1 *241:27 5.41385e-05
20 *14907:C1 *14907:A1 5.50049e-05
21 *15018:CLK *241:12 1.59094e-05
22 *60:10 *241:12 0
23 *105:93 *14834:A1 0.000164291
24 *105:93 *241:27 1.01436e-05
25 *113:42 *14834:A1 0
26 *113:42 *241:27 0
27 *147:129 *14907:A1 5.50049e-05
28 *147:129 *241:27 0.000125013
29 *181:8 *14834:A1 0
30 *220:111 *241:12 0
31 *239:139 *14834:A1 0
*RES
1 *15017:Q *241:4 23 
2 *241:4 *241:12 48.8086 
3 *241:12 *14900:A1 23 
4 *241:12 *241:21 1.595 
5 *241:21 *241:27 21.525 
6 *241:27 *14834:A1 40.61 
7 *241:27 *14907:A1 38.6214 
8 *241:21 *14832:A 23.4971 
9 *241:4 *241:54 41.1179 
10 *241:54 *241:56 15 
11 *241:56 *241:58 170.934 
12 *241:58 *15038:A 38 
*END

*D_NET *242 0.0410312
*CONN
*I *15039:A I *D sky130_fd_sc_hd__clkbuf_4
*I *14836:A I *D sky130_fd_sc_hd__and2_1
*I *14829:A I *D sky130_fd_sc_hd__nand2_1
*I *14827:B1 I *D sky130_fd_sc_hd__o31a_2
*I *15018:Q O *D sky130_fd_sc_hd__dfrtp_4
*CAP
1 *15039:A 0
2 *14836:A 0
3 *14829:A 6.03518e-05
4 *14827:B1 3.09722e-05
5 *15018:Q 0
6 *242:75 0.0109558
7 *242:73 0.0109558
8 *242:71 0.00259776
9 *242:64 0.000575256
10 *242:38 0.00122997
11 *242:24 0.00244731
12 *242:16 0.00277567
13 *242:4 0.00361022
14 *14829:A *261:18 1.24376e-05
15 *242:38 *261:10 0.000792376
16 *14823:A *242:38 4.68153e-05
17 *14829:B *14829:A 3.54864e-06
18 *14829:B *242:38 2.4754e-05
19 *14894:A2 *242:24 2.32004e-05
20 *14894:C1 *242:24 0.000309305
21 *14897:B_N *242:24 0.000216712
22 *14899:A1 *242:64 0.000136486
23 *14900:B1 *242:16 0.000302714
24 *15018:CLK *242:16 5.3304e-05
25 *39:31 *242:38 0
26 *39:35 *242:38 0
27 *84:10 *242:16 0.000225393
28 *101:10 *14827:B1 2.93747e-05
29 *109:22 *242:24 0.000145049
30 *111:10 *14829:A 2.4754e-05
31 *111:10 *242:38 1.76557e-05
32 *111:25 *14829:A 0
33 *112:17 *242:24 0.000100733
34 *113:23 *242:64 8.72173e-05
35 *113:42 *242:64 0
36 *114:10 *242:16 0.000477318
37 *114:10 *242:24 0.000178517
38 *118:10 *242:64 0
39 *174:18 *242:24 7.44161e-06
40 *174:18 *242:64 0.000181943
41 *174:26 *242:64 0.000802321
42 *205:69 *242:64 0.000471985
43 *223:47 *242:38 3.58084e-06
44 *231:16 *242:38 8.22421e-06
45 *231:119 *242:24 0.00061458
46 *231:127 *242:64 0
47 *241:12 *242:16 0.000395878
48 *241:12 *242:71 9.84794e-05
*RES
1 *15018:Q *242:4 23 
2 *242:4 *242:16 23.2414 
3 *242:16 *242:24 48.8293 
4 *242:24 *242:38 43.793 
5 *242:38 *14827:B1 38.6214 
6 *242:24 *14829:A 24.6157 
7 *242:16 *242:64 47.7521 
8 *242:64 *14836:A 23 
9 *242:4 *242:71 44.9293 
10 *242:71 *242:73 15 
11 *242:73 *242:75 213.896 
12 *242:75 *15039:A 38 
*END

*D_NET *243 0.0418948
*CONN
*I *15040:A I *D sky130_fd_sc_hd__buf_2
*I *14825:A I *D sky130_fd_sc_hd__nand2_1
*I *14824:A1 I *D sky130_fd_sc_hd__a22oi_4
*I *14838:A I *D sky130_fd_sc_hd__nand3_1
*I *15019:Q O *D sky130_fd_sc_hd__dfrtp_4
*CAP
1 *15040:A 8.56097e-05
2 *14825:A 2.14194e-05
3 *14824:A1 2.1727e-05
4 *14838:A 0
5 *15019:Q 0
6 *243:53 0.00652607
7 *243:51 0.00755758
8 *243:45 0.00769194
9 *243:24 0.000519358
10 *243:14 0.00124373
11 *243:12 0.00215419
12 *243:4 0.00800494
13 *243:24 *267:31 5.31444e-05
14 *243:24 *267:35 0.000359332
15 *243:24 *267:48 0.000221084
16 *243:51 *255:64 0.0024749
17 *243:53 *255:64 0.00195743
18 *243:53 *255:68 0.0010472
19 A_out[0] *243:51 7.23805e-05
20 B_out[6] *243:53 2.26497e-05
21 last_opcode_out[1] *243:53 2.26497e-05
22 *14825:B *14825:A 5.90675e-06
23 *14825:B *243:12 5.41288e-05
24 *14825:B *243:14 2.93845e-05
25 *14889:B1 *243:24 5.50106e-05
26 *14891:B1_N *243:12 0.000170394
27 *14891:B1_N *243:14 1.24376e-05
28 *11:12 *15040:A 1.94693e-05
29 *11:12 *243:53 0
30 *68:10 *243:12 5.14746e-06
31 *86:6 *243:12 0.000662746
32 *105:12 *243:24 0.00010018
33 *105:25 *243:24 0.000309073
34 *105:42 *14824:A1 4.00259e-06
35 *105:42 *243:14 0.00012238
36 *105:42 *243:24 7.42621e-05
37 *123:8 *243:24 2.36377e-05
38 *123:14 *243:24 4.21594e-06
39 *167:14 *243:24 9.86551e-06
40 *167:47 *243:12 9.04525e-05
41 *180:22 *243:24 8.47306e-05
*RES
1 *15019:Q *243:4 23 
2 *243:4 *243:12 22.7236 
3 *243:12 *243:14 12.0557 
4 *243:14 *243:24 43.7336 
5 *243:24 *14838:A 23 
6 *243:14 *14824:A1 23.4971 
7 *243:12 *14825:A 23.4971 
8 *243:4 *243:45 111.629 
9 *243:45 *243:51 47.8839 
10 *243:51 *243:53 148.677 
11 *243:53 *15040:A 39.5743 
*END

*D_NET *244 0.0277418
*CONN
*I *15041:A I *D sky130_fd_sc_hd__clkbuf_4
*I *14884:A0 I *D sky130_fd_sc_hd__mux2_1
*I *14820:A1 I *D sky130_fd_sc_hd__a21o_1
*I *14817:B1 I *D sky130_fd_sc_hd__o31a_1
*I *15020:Q O *D sky130_fd_sc_hd__dfrtp_4
*CAP
1 *15041:A 0
2 *14884:A0 0
3 *14820:A1 0
4 *14817:B1 0
5 *15020:Q 7.35373e-05
6 *244:57 0.00329272
7 *244:55 0.00331994
8 *244:53 0.00499282
9 *244:51 0.0049656
10 *244:34 0.000246721
11 *244:24 0.00220443
12 *244:20 0.00289042
13 *244:14 0.00174265
14 *244:6 0.000883479
15 *244:24 *261:39 0.000605643
16 *244:34 *266:8 8.85189e-05
17 *14817:A2 *244:34 0
18 *100:8 *244:34 0
19 *114:10 *244:20 2.60152e-05
20 *114:18 *244:20 0.000289699
21 *118:10 *244:20 7.45175e-05
22 *161:29 *244:14 5.50106e-05
23 *161:29 *244:20 0.000140259
24 *162:8 *244:20 8.85189e-05
25 *174:50 *244:20 0
26 *205:63 *244:20 4.02634e-05
27 *205:69 *244:20 0
28 *221:38 *244:53 0.000223043
29 *223:26 *244:24 0.000354122
30 *226:40 *244:34 9.84794e-05
31 *227:36 *244:34 5.67058e-05
32 *231:125 *244:20 3.35885e-06
33 *231:127 *244:20 0.000543637
34 *239:122 *244:14 5.98028e-05
35 *239:135 *244:14 0.000381875
*RES
1 *15020:Q *244:6 24.0979 
2 *244:6 *244:14 13.8993 
3 *244:14 *244:20 35.0307 
4 *244:20 *244:24 42.7779 
5 *244:24 *244:34 34.5779 
6 *244:34 *14817:B1 23 
7 *244:24 *14820:A1 23 
8 *244:14 *14884:A0 23 
9 *244:6 *244:51 15 
10 *244:51 *244:53 97.8025 
11 *244:53 *244:55 0.621429 
12 *244:55 *244:57 65.1775 
13 *244:57 *15041:A 38 
*END

*D_NET *245 0.0391397
*CONN
*I *15042:A I *D sky130_fd_sc_hd__clkbuf_4
*I *14843:B1 I *D sky130_fd_sc_hd__o211a_1
*I *14813:A I *D sky130_fd_sc_hd__and2_1
*I *14812:A1 I *D sky130_fd_sc_hd__a21oi_1
*I *14844:A1 I *D sky130_fd_sc_hd__a211o_1
*I *15021:Q O *D sky130_fd_sc_hd__dfrtp_4
*CAP
1 *15042:A 0
2 *14843:B1 1.83048e-05
3 *14813:A 0.000176875
4 *14812:A1 0.000190703
5 *14844:A1 8.2428e-05
6 *15021:Q 0
7 *245:66 0.011041
8 *245:64 0.011041
9 *245:62 0.00385179
10 *245:20 0.000339361
11 *245:18 0.000492452
12 *245:14 0.00169384
13 *245:12 0.00158907
14 *245:4 0.00401467
15 *245:62 *255:60 0.00326921
16 *14812:B1 *14812:A1 0.000186032
17 *14843:A1 *245:18 0.000316281
18 *14843:A2 *14843:B1 1.12796e-05
19 *14844:B1 *14844:A1 5.12055e-06
20 *14844:C1 *14844:A1 2.0936e-07
21 *14910:A *245:14 5.5792e-05
22 *48:10 *245:14 5.58003e-05
23 *64:10 *245:14 5.58003e-05
24 *93:23 *245:14 6.17437e-06
25 *93:23 *245:18 2.02872e-05
26 *93:35 *14813:A 1.57386e-05
27 *93:35 *14844:A1 1.74874e-06
28 *93:35 *245:18 2.193e-05
29 *93:35 *245:20 2.54821e-05
30 *94:14 *14844:A1 7.81709e-06
31 *161:12 *245:14 2.57057e-05
32 *179:14 *245:14 5.58003e-05
33 *183:20 *14843:B1 3.28357e-06
34 *183:20 *245:14 2.33679e-05
35 *220:77 *245:14 5.76359e-05
36 *223:63 *14813:A 5.82853e-05
37 *224:10 *14813:A 0.00018065
38 *224:10 *245:20 9.87827e-05
39 *229:50 *14844:A1 0
40 *229:57 *14812:A1 5.00237e-05
*RES
1 *15021:Q *245:4 23 
2 *245:4 *245:12 32.755 
3 *245:12 *245:14 24.4429 
4 *245:14 *245:18 19.4329 
5 *245:18 *245:20 1.55357 
6 *245:20 *14844:A1 39.015 
7 *245:20 *14812:A1 41.0036 
8 *245:18 *14813:A 42.0807 
9 *245:14 *14843:B1 23.4971 
10 *245:4 *245:62 96.86 
11 *245:62 *245:64 15 
12 *245:64 *245:66 216.713 
13 *245:66 *15042:A 38 
*END

*D_NET *246 0.0356385
*CONN
*I *14808:A1 I *D sky130_fd_sc_hd__a21oi_2
*I *14809:A I *D sky130_fd_sc_hd__and2_1
*I *15043:A I *D sky130_fd_sc_hd__clkbuf_4
*I *15022:Q O *D sky130_fd_sc_hd__dfrtp_4
*CAP
1 *14808:A1 1.80505e-05
2 *14809:A 0.000370108
3 *15043:A 0.00133063
4 *15022:Q 2.96061e-05
5 *246:27 0.000565883
6 *246:14 0.0161761
7 *246:12 0.0152008
8 *246:8 0.000207154
9 *246:14 *255:46 2.80126e-05
10 *14903:B *14809:A 9.75779e-05
11 *14904:B1 *14808:A1 2.93747e-05
12 *15022:CLK *246:14 0.000354
13 *15022:D *246:14 2.95136e-05
14 *15022:RESET_B *246:12 0.000209554
15 *15022:RESET_B *246:14 4.83893e-05
16 *97:14 *246:8 2.96051e-05
17 *156:19 *246:8 6.16439e-05
18 *229:14 *246:27 0.000256767
19 *229:20 *14809:A 0.000188926
20 *229:20 *246:27 3.70187e-05
21 *234:12 *246:27 0
22 *235:14 *14809:A 0.000314819
23 *235:23 *14808:A1 5.50049e-05
*RES
1 *15022:Q *246:8 38.8493 
2 *246:8 *246:12 17.5271 
3 *246:12 *246:14 197.148 
4 *246:14 *15043:A 45.3196 
5 *246:12 *246:27 19.0186 
6 *246:27 *14809:A 45.9957 
7 *246:27 *14808:A1 38.6214 
*END

*D_NET *247 0.033019
*CONN
*I *15044:A I *D sky130_fd_sc_hd__buf_2
*I *14871:A1 I *D sky130_fd_sc_hd__a21o_1
*I *14851:B1 I *D sky130_fd_sc_hd__o211a_1
*I *14855:A1 I *D sky130_fd_sc_hd__a21o_1
*I *14849:A1 I *D sky130_fd_sc_hd__a21oi_1
*I *14850:A1 I *D sky130_fd_sc_hd__a21bo_1
*I *15023:Q O *D sky130_fd_sc_hd__dfrtp_4
*CAP
1 *15044:A 0
2 *14871:A1 0
3 *14851:B1 0.000148586
4 *14855:A1 0
5 *14849:A1 0
6 *14850:A1 1.55527e-05
7 *15023:Q 0
8 *247:79 0.00380825
9 *247:77 0.00380825
10 *247:75 0.00602469
11 *247:45 0.000115679
12 *247:32 0.000265103
13 *247:28 0.000451753
14 *247:14 0.000789132
15 *247:8 0.00160104
16 *247:4 0.00730307
17 *247:28 *14848:A 4.00259e-06
18 *247:32 *14848:A 0
19 *247:79 *255:64 0.00642812
20 *14848:B *247:28 3.98372e-06
21 *14848:C *247:28 1.95448e-05
22 *14851:A2 *14851:B1 1.11508e-05
23 *14851:C1 *14851:B1 1.01923e-05
24 *14855:A2 *247:28 1.76557e-05
25 *14855:A2 *247:32 9.41492e-05
26 *14855:B1 *247:32 0.000127821
27 *14871:B1 *247:8 8.6949e-05
28 *14871:B1 *247:14 0.000139357
29 *14942:C_N *14851:B1 2.93747e-05
30 *14943:A2 *247:28 0
31 *90:6 *247:8 0.000616669
32 *130:14 *14851:B1 1.39762e-05
33 *131:8 *247:45 6.93553e-05
34 *131:12 *247:32 5.67058e-05
35 *133:16 *14850:A1 2.93747e-05
36 *133:16 *247:32 4.66047e-05
37 *137:14 *247:32 0.00014196
38 *151:22 *247:14 9.67842e-05
39 *151:28 *247:14 0.000133645
40 *185:16 *247:45 0
41 *205:83 *247:14 0
42 *224:54 *247:14 8.85189e-05
43 *224:60 *14851:B1 1.03955e-05
44 *224:60 *247:14 0.000166513
45 *224:68 *14851:B1 3.34085e-05
46 *224:74 *14850:A1 3.22879e-05
47 *224:74 *247:32 7.79377e-05
48 *233:100 *247:14 3.61397e-05
49 *233:100 *247:28 6.53491e-05
*RES
1 *15023:Q *247:4 23 
2 *247:4 *247:8 18.9743 
3 *247:8 *247:14 21.8979 
4 *247:14 *247:28 20.4893 
5 *247:28 *247:32 4.80571 
6 *247:32 *14850:A1 23.6214 
7 *247:32 *247:45 32.2579 
8 *247:45 *14849:A1 23 
9 *247:28 *14855:A1 23 
10 *247:14 *14851:B1 40.5686 
11 *247:8 *14871:A1 23 
12 *247:4 *247:75 111.153 
13 *247:75 *247:77 15 
14 *247:77 *247:79 101.914 
15 *247:79 *15044:A 38 
*END

*D_NET *248 0.0335218
*CONN
*I *14798:A I *D sky130_fd_sc_hd__and2_2
*I *14857:A1 I *D sky130_fd_sc_hd__a21oi_2
*I *15045:A I *D sky130_fd_sc_hd__clkbuf_4
*I *15024:Q O *D sky130_fd_sc_hd__dfrtp_4
*CAP
1 *14798:A 0
2 *14857:A1 0.000343322
3 *15045:A 0
4 *15024:Q 0
5 *248:27 0.00170458
6 *248:25 0.00190311
7 *248:12 0.00674922
8 *248:10 0.00674922
9 *248:8 0.00622458
10 *248:6 0.00626469
11 *248:4 0.000581967
12 *248:25 *269:21 0
13 *14918:A1 *14857:A1 0.000228903
14 *14918:A2 *14857:A1 0.000133986
15 *14918:C1 *14857:A1 5.67058e-05
16 *67:8 *248:25 0
17 *139:6 *14857:A1 7.24365e-05
18 *185:30 *14857:A1 0.000488533
19 *220:31 *248:25 8.68472e-05
20 *222:139 *248:27 0.000575004
21 *224:80 *14857:A1 9.67842e-05
22 *224:80 *248:27 0.00126188
*RES
1 *15024:Q *248:4 23 
2 *248:4 *248:6 0.849286 
3 *248:6 *248:8 114.488 
4 *248:8 *248:10 15 
5 *248:10 *248:12 132.551 
6 *248:12 *15045:A 38 
7 *248:4 *248:25 40.7093 
8 *248:25 *248:27 30.6364 
9 *248:27 *14857:A1 34.6 
10 *248:27 *14798:A 23 
*END

*D_NET *249 0.0422079
*CONN
*I *14932:B2 I *D sky130_fd_sc_hd__a2bb2o_1
*I *15046:A I *D sky130_fd_sc_hd__clkbuf_4
*I *15013:Q O *D sky130_fd_sc_hd__dfrtp_4
*CAP
1 *14932:B2 0.000409451
2 *15046:A 0
3 *15013:Q 0
4 *249:29 0.00141754
5 *249:16 0.00175747
6 *249:12 0.0101174
7 *249:10 0.00835992
8 *249:8 0.00634751
9 *249:6 0.00735559
10 *249:8 *15055:A 0
11 *249:8 *250:8 0
12 *249:8 *267:55 0
13 *249:12 *250:14 0.00159179
14 *249:12 *250:18 0.00164559
15 *249:12 *250:20 0.00286701
16 *249:29 *250:8 0
17 *249:29 *267:55 0
18 *222:36 *249:29 0.000252056
19 *222:48 *249:29 8.65442e-05
20 *238:12 *14932:B2 0
21 *238:16 *14932:B2 0
*RES
1 *15013:Q *249:6 38 
2 *249:6 *249:8 124.451 
3 *249:8 *249:10 15 
4 *249:10 *249:12 133.307 
5 *249:12 *249:16 30.4189 
6 *249:16 *15046:A 23 
7 *249:6 *249:29 45.1421 
8 *249:29 *14932:B2 45.1879 
*END

*D_NET *250 0.0294548
*CONN
*I *14926:B2 I *D sky130_fd_sc_hd__a2bb2o_1
*I *15047:A I *D sky130_fd_sc_hd__clkbuf_4
*I *15014:Q O *D sky130_fd_sc_hd__dfrtp_4
*CAP
1 *14926:B2 0
2 *15047:A 0
3 *15014:Q 0
4 *250:39 0.000768958
5 *250:20 0.00186061
6 *250:18 0.00214693
7 *250:14 0.0009828
8 *250:8 0.00731582
9 *250:6 0.00661934
10 *250:4 0.000768958
11 *250:8 *267:55 0
12 *250:14 *253:14 0.0017402
13 *250:18 *253:14 0.0008579
14 *15014:CLK *250:39 5.67058e-05
15 *15014:D *250:39 6.02707e-05
16 *56:10 *250:39 4.63849e-05
17 *80:10 *250:39 0.000114092
18 *81:8 *250:39 0
19 *180:84 *250:39 1.14452e-05
20 *238:12 *250:39 0
21 *249:8 *250:8 0
22 *249:12 *250:14 0.00159179
23 *249:12 *250:18 0.00164559
24 *249:12 *250:20 0.00286701
25 *249:29 *250:8 0
*RES
1 *15014:Q *250:4 23 
2 *250:4 *250:6 15 
3 *250:6 *250:8 129.381 
4 *250:8 *250:14 46.3718 
5 *250:14 *250:18 18.5082 
6 *250:18 *250:20 55.4107 
7 *250:20 *15047:A 23 
8 *250:4 *250:39 44.8521 
9 *250:39 *14926:B2 23 
*END

*D_NET *251 0.0171603
*CONN
*I *15048:A I *D sky130_fd_sc_hd__clkbuf_4
*I *14954:A0 I *D sky130_fd_sc_hd__mux2_1
*I *14834:B2 I *D sky130_fd_sc_hd__a221oi_4
*I *14908:A1 I *D sky130_fd_sc_hd__a21bo_1
*I *15001:Q O *D sky130_fd_sc_hd__dfrtp_4
*CAP
1 *15048:A 0
2 *14954:A0 0
3 *14834:B2 0
4 *14908:A1 0
5 *15001:Q 0
6 *251:55 0.00643197
7 *251:43 0.000598545
8 *251:18 0.000811071
9 *251:12 0.00131163
10 *251:4 0.00753107
11 *14909:D *251:18 4.26957e-05
12 *14954:A1 *251:12 2.93747e-05
13 *14954:A1 *251:18 3.22879e-05
14 *15001:CLK *251:12 4.96717e-05
15 *105:93 *251:43 0.000198941
16 *113:42 *251:43 0
17 *181:8 *251:43 0
18 *182:8 *251:18 2.36844e-05
19 *205:73 *251:18 0
20 *205:75 *251:18 0
21 *229:112 *251:43 9.9345e-05
22 *239:139 *251:18 0
23 *239:139 *251:43 0
*RES
1 *15001:Q *251:4 23 
2 *251:4 *251:12 15.5771 
3 *251:12 *251:18 19.4121 
4 *251:18 *14908:A1 38 
5 *251:18 *251:43 27.2629 
6 *251:43 *14834:B2 23 
7 *251:12 *14954:A0 23 
8 *251:4 *251:55 109.724 
9 *251:55 *15048:A 23 
*END

*D_NET *252 0.0301804
*CONN
*I *15049:A I *D sky130_fd_sc_hd__buf_2
*I *14915:A I *D sky130_fd_sc_hd__or2_1
*I *15015:Q O *D sky130_fd_sc_hd__dfrtp_4
*CAP
1 *15049:A 0
2 *14915:A 0
3 *15015:Q 0
4 *252:35 0.00469913
5 *252:33 0.00469913
6 *252:31 0.0067077
7 *252:29 0.00732156
8 *252:20 0.000935278
9 *252:4 0.00154914
10 *252:35 *271:38 0.00405638
11 A_out[6] *252:35 1.34542e-05
12 *15024:CLK *252:20 0.000143655
13 *15024:D *252:20 5.50106e-05
14 *67:8 *252:20 0
15 *222:12 *252:20 0
*RES
1 *15015:Q *252:4 23 
2 *252:4 *252:20 45.4529 
3 *252:20 *14915:A 23 
4 *252:4 *252:29 11.3618 
5 *252:29 *252:31 114.726 
6 *252:31 *252:33 15 
7 *252:33 *252:35 109.309 
8 *252:35 *15049:A 38 
*END

*D_NET *253 0.029122
*CONN
*I *14957:A1 I *D sky130_fd_sc_hd__o21a_1
*I *14912:A I *D sky130_fd_sc_hd__nand2_1
*I *15050:A I *D sky130_fd_sc_hd__clkbuf_4
*I *15016:Q O *D sky130_fd_sc_hd__dfrtp_4
*CAP
1 *14957:A1 0.000165996
2 *14912:A 6.64039e-05
3 *15050:A 0
4 *15016:Q 0
5 *253:40 0.00314606
6 *253:27 0.00421995
7 *253:14 0.00127448
8 *253:10 0.00127448
9 *253:8 0.00668797
10 *253:6 0.00668797
11 *253:4 0.00117348
12 *253:8 *255:10 0.00112882
13 *253:8 *259:37 0
14 *253:40 *267:16 0
15 *253:40 *270:12 0.000198772
16 *253:40 *272:31 0
17 *14913:B1 *14912:A 0
18 *14940:B *253:40 0
19 *14957:A2 *14957:A1 5.67058e-05
20 *14980:A *14912:A 0
21 *15016:D *253:27 0.000230604
22 *36:8 *14957:A1 9.45591e-05
23 *46:10 *253:40 5.56203e-05
24 *51:10 *253:27 2.76611e-06
25 *51:10 *253:40 5.33753e-05
26 *83:8 *253:27 0
27 *180:36 *253:40 0
28 *180:150 *14912:A 5.90675e-06
29 *205:19 *253:40 0
30 *205:34 *253:40 0
31 *222:111 *253:40 0
32 *231:41 *253:40 0
33 *231:60 *253:40 0
34 *233:35 *253:40 0
35 *233:70 *253:40 0
36 *238:144 *253:40 0
37 *238:166 *253:40 0
38 *250:14 *253:14 0.0017402
39 *250:18 *253:14 0.0008579
*RES
1 *15016:Q *253:4 23 
2 *253:4 *253:6 15 
3 *253:6 *253:8 138.537 
4 *253:8 *253:10 15 
5 *253:10 *253:14 35.8979 
6 *253:14 *15050:A 23 
7 *253:4 *253:27 32.5036 
8 *253:27 *14912:A 39.1186 
9 *253:27 *253:40 55.7836 
10 *253:40 *14957:A1 41.48 
*END

*D_NET *254 0.00100129
*CONN
*I *15051:A I *D sky130_fd_sc_hd__clkbuf_4
*I *15025:X O *D sky130_fd_sc_hd__clkbuf_1
*CAP
1 *15051:A 0.000261702
2 *15025:X 0.00023894
3 *254:8 0.000500643
*RES
1 *15025:X *254:8 42.3707 
2 *254:8 *15051:A 42.4329 
*END

*D_NET *255 0.0816104
*CONN
*I *15052:A I *D sky130_fd_sc_hd__buf_2
*I *14938:A1 I *D sky130_fd_sc_hd__a31o_1
*I *15025:A I *D sky130_fd_sc_hd__clkbuf_1
*I *15009:Q O *D sky130_fd_sc_hd__dfrtp_4
*CAP
1 *15052:A 0
2 *14938:A1 0
3 *15025:A 0
4 *15009:Q 0.000126199
5 *255:68 0.00159346
6 *255:64 0.00412028
7 *255:62 0.00252682
8 *255:60 0.00895036
9 *255:58 0.00911112
10 *255:52 0.00117369
11 *255:46 0.00180442
12 *255:38 0.00164868
13 *255:25 0.00140288
14 *255:14 0.0099548
15 *255:12 0.0099548
16 *255:10 0.00185035
17 *255:8 0.00252225
18 *255:10 *259:35 8.68472e-05
19 *255:10 *259:37 0.00110092
20 *255:38 *14938:B1 0.000648924
21 *255:38 *260:33 0.000352421
22 B_out[6] *255:64 2.47015e-05
23 last_opcode_out[1] *255:68 1.27424e-05
24 *14815:A *255:52 0.000136743
25 *14822:A *255:52 0.000306338
26 *14847:B1 *255:52 1.03955e-05
27 *14876:A1 *255:52 2.17486e-05
28 *14879:A *255:52 0.000166774
29 *14905:B *255:58 9.65297e-06
30 *14938:A2 *255:25 9.84851e-05
31 *14946:C_N *255:60 0.000187389
32 *15021:D *255:60 0.000320094
33 *15022:RESET_B *255:46 9.49239e-05
34 *76:10 *255:25 0.000141052
35 *89:10 *255:38 1.01436e-05
36 *95:27 *255:58 5.3304e-05
37 *97:12 *255:46 0.000110922
38 *97:12 *255:52 0.00043937
39 *97:14 *255:46 0.000219882
40 *104:8 *255:52 9.41704e-05
41 *125:33 *255:52 0.00105402
42 *155:10 *255:38 0
43 *155:34 *255:52 0.000185434
44 *157:16 *255:52 0.00165799
45 *178:18 *255:38 8.78748e-05
46 *179:6 *255:60 6.89359e-06
47 *203:8 *255:10 0.000360161
48 *231:54 *255:25 4.00259e-06
49 *231:127 *255:52 0.000163643
50 *231:131 *255:52 5.50106e-05
51 *233:50 *255:25 1.22822e-05
52 *233:50 *255:38 2.32004e-05
53 *234:12 *255:38 6.4393e-05
54 *235:35 *255:46 2.25812e-05
55 *236:52 *255:46 0.000191157
56 *237:23 *255:46 0
57 *243:51 *255:64 0.0024749
58 *243:53 *255:64 0.00195743
59 *243:53 *255:68 0.0010472
60 *245:62 *255:60 0.00326921
61 *246:14 *255:46 2.80126e-05
62 *247:79 *255:64 0.00642812
63 *253:8 *255:10 0.00112882
*RES
1 *15009:Q *255:8 40.2579 
2 *255:8 *255:10 54.0229 
3 *255:10 *255:12 15 
4 *255:12 *255:14 184.523 
5 *255:14 *15025:A 23 
6 *255:8 *255:25 25.1707 
7 *255:25 *14938:A1 23 
8 *255:25 *255:38 48.2493 
9 *255:38 *255:46 41.6621 
10 *255:46 *255:52 46.9414 
11 *255:52 *255:58 17.8845 
12 *255:58 *255:60 133.436 
13 *255:60 *255:62 15 
14 *255:62 *255:64 100.599 
15 *255:64 *255:68 40.4654 
16 *255:68 *15052:A 38 
*END

*D_NET *256 0.0313111
*CONN
*I *15053:A I *D sky130_fd_sc_hd__clkbuf_4
*I *14936:A I *D sky130_fd_sc_hd__and3_1
*I *15010:Q O *D sky130_fd_sc_hd__dfrtp_4
*CAP
1 *15053:A 0
2 *14936:A 0.000385722
3 *15010:Q 0.000494258
4 *256:25 0.0106628
5 *256:23 0.0106628
6 *256:21 0.00404116
7 *256:10 0.00492114
8 *256:10 *259:8 0
9 *256:21 *259:8 0
10 *14936:B *14936:A 3.71251e-05
11 *14936:C *14936:A 0.00010604
*RES
1 *15010:Q *256:10 47.0314 
2 *256:10 *14936:A 44.815 
3 *256:10 *256:21 79.025 
4 *256:21 *256:23 15 
5 *256:23 *256:25 182.617 
6 *256:25 *15053:A 23 
*END

*D_NET *257 0.0228353
*CONN
*I *15031:A I *D sky130_fd_sc_hd__dlygate4sd3_1
*I *15054:A I *D sky130_fd_sc_hd__clkbuf_4
*I *15011:Q O *D sky130_fd_sc_hd__dfrtp_2
*CAP
1 *15031:A 0.000350284
2 *15054:A 0
3 *15011:Q 8.44321e-05
4 *257:14 0.00696819
5 *257:12 0.00701628
6 *257:10 0.00241166
7 *257:8 0.00236357
8 *257:6 0.000434716
9 *257:10 *260:14 0
10 *15011:RESET_B *257:6 6.17437e-06
11 *37:31 *257:10 0.000655146
12 *43:10 *257:10 0
13 *205:42 *257:10 0.00242908
14 *217:21 *257:10 8.62876e-05
15 *219:10 *257:10 2.95125e-05
*RES
1 *15011:Q *257:6 24.0979 
2 *257:6 *257:8 15 
3 *257:8 *257:10 57.6789 
4 *257:10 *257:12 1.09786 
5 *257:12 *257:14 136.642 
6 *257:14 *15054:A 38 
7 *257:6 *15031:A 28.8621 
*END

*D_NET *258 0.00211023
*CONN
*I *15055:A I *D sky130_fd_sc_hd__clkbuf_4
*I *15026:X O *D sky130_fd_sc_hd__clkbuf_1
*CAP
1 *15055:A 0.000584711
2 *15026:X 0.000430957
3 *258:8 0.00101567
4 last_opcode_out[4] *15055:A 7.88926e-05
5 *249:8 *15055:A 0
*RES
1 *15026:X *258:8 43.3857 
2 *258:8 *15055:A 49.3721 
*END

*D_NET *259 0.0653354
*CONN
*I *14933:A I *D sky130_fd_sc_hd__and3_1
*I *15026:A I *D sky130_fd_sc_hd__clkbuf_1
*I *15056:A I *D sky130_fd_sc_hd__clkbuf_4
*I *15012:Q O *D sky130_fd_sc_hd__dfrtp_4
*CAP
1 *14933:A 0
2 *15026:A 0
3 *15056:A 0.00131979
4 *15012:Q 0
5 *259:41 0.000744019
6 *259:37 0.0075784
7 *259:35 0.00719311
8 *259:20 0.00613099
9 *259:18 0.00486795
10 *259:16 0.00255197
11 *259:14 0.00368522
12 *259:8 0.0131807
13 *259:6 0.0119907
14 *259:4 0.000358726
15 *259:14 *268:40 0.0017651
16 *259:16 *268:40 0.000524298
17 *259:16 *268:44 0.002124
18 A_out[3] *259:16 5.70419e-05
19 A_out[5] *259:20 2.21565e-05
20 A_out[7] *259:14 8.82787e-06
21 A_out[7] *259:16 4.46649e-05
22 *53:10 *259:8 0
23 *77:10 *259:8 0
24 *204:8 *259:8 0
25 *239:32 *259:8 0
26 *239:36 *259:8 0
27 *253:8 *259:37 0
28 *255:10 *259:35 8.68472e-05
29 *255:10 *259:37 0.00110092
30 *256:10 *259:8 0
31 *256:21 *259:8 0
*RES
1 *15012:Q *259:4 23 
2 *259:4 *259:6 15 
3 *259:6 *259:8 233.968 
4 *259:8 *259:14 49.7068 
5 *259:14 *259:16 64.4629 
6 *259:16 *259:18 1.20143 
7 *259:18 *259:20 64.4629 
8 *259:20 *15056:A 45.3196 
9 *259:4 *259:35 22.2707 
10 *259:35 *259:37 143.115 
11 *259:37 *259:41 28.485 
12 *259:41 *15026:A 23 
13 *259:35 *14933:A 38 
*END

*D_NET *260 0.0141629
*CONN
*I *14875:B I *D sky130_fd_sc_hd__nand2_1
*I *14941:A1 I *D sky130_fd_sc_hd__o41a_1
*I *14939:A I *D sky130_fd_sc_hd__nor2_4
*I *14938:B1 I *D sky130_fd_sc_hd__a31o_1
*I *14864:B I *D sky130_fd_sc_hd__and2_1
*I *15036:X O *D sky130_fd_sc_hd__buf_2
*CAP
1 *14875:B 0
2 *14941:A1 0
3 *14939:A 0
4 *14938:B1 0.000177402
5 *14864:B 0.000107348
6 *15036:X 0.000356091
7 *260:61 0.000563973
8 *260:46 0.000819323
9 *260:33 0.00131606
10 *260:27 0.00120268
11 *260:14 0.00225147
12 *260:8 0.00218085
13 *260:14 *263:8 5.26054e-05
14 *260:46 *267:55 0.000867116
15 *14807:B *260:46 6.25829e-05
16 *14819:B *260:14 0
17 *14865:A *14864:B 2.93747e-05
18 *14865:A *260:14 2.32101e-05
19 *14939:B *260:61 5.50049e-05
20 *37:31 *260:14 0
21 *38:33 *260:8 0.000270682
22 *38:33 *260:14 0
23 *38:35 *260:14 0
24 *147:10 *260:14 0.000185322
25 *155:8 *260:33 0.000391767
26 *155:10 *260:33 0.000212712
27 *155:10 *260:61 0.000462799
28 *180:52 *260:14 0
29 *180:52 *260:27 0
30 *180:52 *260:33 0
31 *180:69 *260:61 0.000227208
32 *180:80 *260:61 0
33 *231:54 *14938:B1 9.45591e-05
34 *231:60 *260:46 0.000814667
35 *233:50 *14938:B1 0.000436762
36 *233:134 *260:61 0
37 *238:10 *260:61 0
38 *239:8 *260:14 0
39 *255:38 *14938:B1 0.000648924
40 *255:38 *260:33 0.000352421
41 *257:10 *260:14 0
*RES
1 *15036:X *260:8 42.9093 
2 *260:8 *260:14 49.4686 
3 *260:14 *14864:B 25.0714 
4 *260:14 *260:27 21.1314 
5 *260:27 *260:33 36.0043 
6 *260:33 *14938:B1 30.2914 
7 *260:33 *260:46 41.4136 
8 *260:46 *14939:A 23 
9 *260:46 *260:61 42.0143 
10 *260:61 *14941:A1 23 
11 *260:27 *14875:B 38 
*END

*D_NET *261 0.00817069
*CONN
*I *14896:B1_N I *D sky130_fd_sc_hd__o21ba_1
*I *14834:C1 I *D sky130_fd_sc_hd__a221oi_4
*I *14890:C1 I *D sky130_fd_sc_hd__a211o_1
*I *15037:X O *D sky130_fd_sc_hd__clkbuf_2
*CAP
1 *14896:B1_N 0
2 *14834:C1 0
3 *14890:C1 0
4 *15037:X 0.000260279
5 *261:39 0.000396521
6 *261:30 0.000318922
7 *261:22 0.000932093
8 *261:18 0.000505704
9 *261:10 0.000549333
10 *14823:B *261:10 0.000530622
11 *14829:A *261:18 1.24376e-05
12 *14829:B *261:10 1.32314e-05
13 *14890:A1 *261:30 1.37232e-05
14 *14890:A2 *261:30 3.22879e-05
15 *14897:B_N *261:18 2.24608e-05
16 *14897:B_N *261:22 8.4047e-05
17 *14919:C1 *261:30 0
18 *111:10 *261:18 9.58714e-05
19 *117:12 *261:22 4.6318e-06
20 *119:22 *261:22 0.000274553
21 *119:22 *261:30 0.000892075
22 *119:30 *261:30 0
23 *147:93 *261:30 0.000182826
24 *167:14 *261:30 2.25419e-05
25 *169:25 *261:22 0
26 *172:12 *261:22 0.000340163
27 *172:12 *261:30 0.000684234
28 *223:16 *261:10 2.98648e-05
29 *223:33 *261:10 0.000135872
30 *229:112 *261:39 0.000438376
31 *242:38 *261:10 0.000792376
32 *244:24 *261:39 0.000605643
*RES
1 *15037:X *261:10 48.9475 
2 *261:10 *261:18 18.4696 
3 *261:18 *261:22 20.7793 
4 *261:22 *261:30 28.6093 
5 *261:30 *14890:C1 23 
6 *261:22 *261:39 28.0086 
7 *261:39 *14834:C1 23 
8 *261:18 *14896:B1_N 23 
*END

*D_NET *262 0.041596
*CONN
*I *15057:A I *D sky130_fd_sc_hd__clkbuf_4
*I *14952:A0 I *D sky130_fd_sc_hd__mux2_1
*I *14828:A I *D sky130_fd_sc_hd__and3_2
*I *15002:Q O *D sky130_fd_sc_hd__dfrtp_4
*CAP
1 *15057:A 0
2 *14952:A0 0
3 *14828:A 0
4 *15002:Q 0.000270976
5 *262:40 0.0127789
6 *262:38 0.0127789
7 *262:36 0.00554187
8 *262:22 0.000565521
9 *262:16 0.000888137
10 *262:10 0.00613547
11 *14828:C *262:22 0.00010018
12 *110:10 *262:22 0.000837546
13 *113:19 *262:22 0.00118534
14 *212:10 *262:16 2.10884e-05
15 *212:10 *262:36 9.6289e-05
16 *239:118 *262:10 1.32314e-05
17 *239:118 *262:16 0.000382583
*RES
1 *15002:Q *262:10 42.4536 
2 *262:10 *262:16 7.25 
3 *262:16 *262:22 34.14 
4 *262:22 *14828:A 23 
5 *262:16 *14952:A0 38 
6 *262:10 *262:36 109.661 
7 *262:36 *262:38 15 
8 *262:38 *262:40 241.694 
9 *262:40 *15057:A 23 
*END

*D_NET *263 0.00133223
*CONN
*I *14935:A1 I *D sky130_fd_sc_hd__a21o_1
*I *15031:X O *D sky130_fd_sc_hd__dlygate4sd3_1
*CAP
1 *14935:A1 0.000168345
2 *15031:X 0.000119173
3 *263:8 0.000287518
4 *14935:B1 *14935:A1 0.000481024
5 *37:31 *263:8 0
6 *180:22 *14935:A1 5.13694e-05
7 *180:28 *14935:A1 4.14243e-05
8 *180:36 *14935:A1 3.22879e-05
9 *180:52 *263:8 0
10 *222:111 *14935:A1 9.84794e-05
11 *260:14 *263:8 5.26054e-05
*RES
1 *15031:X *263:8 40.2579 
2 *263:8 *14935:A1 43.8829 
*END

*D_NET *264 0.00105318
*CONN
*I *14947:A1 I *D sky130_fd_sc_hd__o21a_1
*I *15032:X O *D sky130_fd_sc_hd__dlygate4sd3_1
*CAP
1 *14947:A1 0
2 *15032:X 0.00037744
3 *264:10 0.00037744
4 *205:77 *264:10 4.6318e-06
5 *205:83 *264:10 6.33511e-05
6 *220:51 *264:10 0.00023032
*RES
1 *15032:X *264:10 44.3386 
2 *264:10 *14947:A1 38 
*END

*D_NET *265 0.000551289
*CONN
*I *14965:B1 I *D sky130_fd_sc_hd__o21a_1
*I *15033:X O *D sky130_fd_sc_hd__dlygate4sd3_1
*CAP
1 *14965:B1 0
2 *15033:X 0.000275645
3 *265:6 0.000275645
*RES
1 *15033:X *265:6 27.4329 
2 *265:6 *14965:B1 23 
*END

*D_NET *266 0.00331755
*CONN
*I *14820:B1 I *D sky130_fd_sc_hd__a21o_1
*I *14839:A1 I *D sky130_fd_sc_hd__o31a_1
*I *15035:X O *D sky130_fd_sc_hd__buf_1
*CAP
1 *14820:B1 5.145e-05
2 *14839:A1 0.000488621
3 *15035:X 0.000258372
4 *266:8 0.000798443
5 *14821:A1 *14839:A1 8.17328e-05
6 *14821:B1_N *14839:A1 0.000136743
7 *14839:B1 *14839:A1 1.24376e-05
8 *99:16 *14839:A1 5.3304e-05
9 *100:8 *14839:A1 0
10 *100:8 *266:8 0
11 *102:12 *14839:A1 2.54646e-05
12 *223:12 *266:8 0.000195331
13 *231:16 *14839:A1 0.000195248
14 *231:16 *266:8 0.000550029
15 *237:12 *14839:A1 0.000381852
16 *244:34 *266:8 8.85189e-05
*RES
1 *15035:X *266:8 45.54 
2 *266:8 *14839:A1 49.2893 
3 *266:8 *14820:B1 38.6214 
*END

*D_NET *267 0.0448984
*CONN
*I *15058:A I *D sky130_fd_sc_hd__clkbuf_4
*I *14824:B2 I *D sky130_fd_sc_hd__a22oi_4
*I *14889:A1 I *D sky130_fd_sc_hd__a21o_1
*I *14950:A0 I *D sky130_fd_sc_hd__mux2_1
*I *15003:Q O *D sky130_fd_sc_hd__dfrtp_4
*CAP
1 *15058:A 0
2 *14824:B2 0
3 *14889:A1 0
4 *14950:A0 0
5 *15003:Q 4.49845e-05
6 *267:59 0.0112259
7 *267:57 0.0112259
8 *267:55 0.00635688
9 *267:48 0.000213508
10 *267:35 0.000518639
11 *267:31 0.00181942
12 *267:16 0.00175438
13 *267:8 0.00664195
14 *14807:B *267:55 0.000245345
15 *14875:A *267:16 0
16 *14875:A *267:55 0.000166666
17 *14882:A *267:31 8.97596e-05
18 *14882:C *267:31 9.41704e-05
19 *14950:A1 *267:31 2.93845e-05
20 *14950:S *267:16 6.17437e-06
21 *14950:S *267:31 4.79641e-05
22 *37:31 *267:16 0
23 *56:10 *267:55 0
24 *57:8 *267:55 0.000116314
25 *81:8 *267:55 0
26 *83:8 *267:55 0.000166676
27 *106:8 *267:48 0
28 *108:8 *267:31 3.76196e-05
29 *108:12 *267:31 1.21972e-05
30 *123:8 *267:31 0.000114092
31 *155:10 *267:55 0
32 *163:10 *267:48 6.16531e-05
33 *180:22 *267:35 2.13733e-05
34 *180:52 *267:55 0.000632219
35 *205:34 *267:16 2.64616e-05
36 *205:34 *267:55 0
37 *205:40 *267:16 2.31209e-05
38 *205:42 *267:16 1.96584e-05
39 *211:8 *267:16 6.88552e-05
40 *211:8 *267:55 0
41 *231:60 *267:55 9.79642e-05
42 *233:70 *267:55 0.000271382
43 *238:120 *267:55 0.000641581
44 *238:131 *267:55 0.000605502
45 *243:24 *267:31 5.31444e-05
46 *243:24 *267:35 0.000359332
47 *243:24 *267:48 0.000221084
48 *249:8 *267:55 0
49 *249:29 *267:55 0
50 *250:8 *267:55 0
51 *253:40 *267:16 0
52 *260:46 *267:55 0.000867116
*RES
1 *15003:Q *267:8 38.6214 
2 *267:8 *267:16 20.3857 
3 *267:16 *14950:A0 23 
4 *267:16 *267:31 41.6386 
5 *267:31 *267:35 19.9093 
6 *267:35 *14889:A1 23 
7 *267:35 *267:48 33.3764 
8 *267:48 *14824:B2 23 
9 *267:8 *267:55 140.65 
10 *267:55 *267:57 15 
11 *267:57 *267:59 207.391 
12 *267:59 *15058:A 23 
*END

*D_NET *268 0.0388103
*CONN
*I *15059:A I *D sky130_fd_sc_hd__clkbuf_4
*I *14948:A0 I *D sky130_fd_sc_hd__mux2_1
*I *14818:A I *D sky130_fd_sc_hd__and3_1
*I *15004:Q O *D sky130_fd_sc_hd__dfrtp_4
*CAP
1 *15059:A 0
2 *14948:A0 7.53738e-05
3 *14818:A 0
4 *15004:Q 0
5 *268:44 0.0017392
6 *268:40 0.00788399
7 *268:38 0.00614479
8 *268:36 0.00783276
9 *268:20 0.000596141
10 *268:12 0.000997798
11 *268:6 0.00815904
12 last_opcode_out[3] *268:40 1.18615e-05
13 *14948:A1 *14948:A0 9.30054e-05
14 *14948:A1 *268:12 0.000195578
15 *14948:A1 *268:20 0
16 *47:8 *268:12 0.000137737
17 *161:19 *268:20 0
18 *205:146 *268:20 6.68793e-05
19 *221:40 *268:12 9.84794e-05
20 *221:51 *14948:A0 0.000236511
21 *221:51 *268:12 4.04303e-05
22 *230:6 *268:20 5.50049e-05
23 *232:10 *268:20 3.22879e-05
24 *259:14 *268:40 0.0017651
25 *259:16 *268:40 0.000524298
26 *259:16 *268:44 0.002124
*RES
1 *15004:Q *268:6 38 
2 *268:6 *268:12 23.5343 
3 *268:12 *268:20 41.3307 
4 *268:20 *14818:A 23 
5 *268:12 *14948:A0 26.0243 
6 *268:6 *268:36 153.679 
7 *268:36 *268:38 15 
8 *268:38 *268:40 90.9046 
9 *268:40 *268:44 41.3768 
10 *268:44 *15059:A 23 
*END

*D_NET *269 0.0204945
*CONN
*I *15032:A I *D sky130_fd_sc_hd__dlygate4sd3_1
*I *15060:A I *D sky130_fd_sc_hd__clkbuf_4
*I *14811:A I *D sky130_fd_sc_hd__and3_1
*I *15005:Q O *D sky130_fd_sc_hd__dfrtp_2
*CAP
1 *15032:A 4.56369e-05
2 *15060:A 0
3 *14811:A 0.000804152
4 *15005:Q 0.000245253
5 *269:21 0.00825312
6 *269:19 0.00840906
7 *269:6 0.0011597
8 *269:21 *271:14 0
9 *15005:CLK *14811:A 0.00012003
10 *50:12 *269:21 5.80963e-05
11 *72:6 *14811:A 0.000396689
12 *220:51 *15032:A 9.84851e-05
13 *238:64 *269:21 0.000318493
14 *238:75 *269:19 7.55491e-05
15 *238:75 *269:21 0.000443242
16 *238:90 *14811:A 2.98648e-05
17 *238:90 *269:6 3.71369e-05
18 *248:25 *269:21 0
*RES
1 *15005:Q *269:6 26.48 
2 *269:6 *14811:A 34.6 
3 *269:6 *269:19 17.2579 
4 *269:19 *269:21 166.356 
5 *269:21 *15060:A 38 
6 *269:19 *15032:A 39.0979 
*END

*D_NET *270 0.0478311
*CONN
*I *15061:A I *D sky130_fd_sc_hd__buf_2
*I *14944:A0 I *D sky130_fd_sc_hd__mux2_1
*I *14807:A I *D sky130_fd_sc_hd__and3_1
*I *15006:Q O *D sky130_fd_sc_hd__dfrtp_4
*CAP
1 *15061:A 0
2 *14944:A0 0
3 *14807:A 0.00014354
4 *15006:Q 0
5 *270:38 0.0110955
6 *270:36 0.0110955
7 *270:34 0.0058097
8 *270:32 0.00589358
9 *270:30 0.00634117
10 *270:28 0.00627917
11 *270:12 0.00027943
12 *270:4 0.000157772
13 *14807:C *14807:A 0.00014196
14 *14944:A1 *14807:A 0.000271476
15 *14945:A *14807:A 0
16 *205:34 *270:12 5.97471e-05
17 *238:166 *270:30 6.37171e-05
18 *253:40 *270:12 0.000198772
*RES
1 *15006:Q *270:4 23 
2 *270:4 *270:12 33.8114 
3 *270:12 *14807:A 26.9771 
4 *270:12 *14944:A0 23 
5 *270:4 *270:28 0.497143 
6 *270:28 *270:30 80.8996 
7 *270:30 *270:32 1.90571 
8 *270:32 *270:34 79.4704 
9 *270:34 *270:36 15 
10 *270:36 *270:38 217.769 
11 *270:38 *15061:A 38 
*END

*D_NET *271 0.025762
*CONN
*I *15062:A I *D sky130_fd_sc_hd__buf_2
*I *14943:A1 I *D sky130_fd_sc_hd__o21a_1
*I *14848:A I *D sky130_fd_sc_hd__and3_1
*I *15007:Q O *D sky130_fd_sc_hd__dfrtp_4
*CAP
1 *15062:A 4.67873e-05
2 *14943:A1 0
3 *14848:A 0.000173603
4 *15007:Q 0
5 *271:38 0.00275405
6 *271:36 0.00270727
7 *271:34 0.00674956
8 *271:32 0.00686812
9 *271:14 0.000978425
10 *271:4 0.000923378
11 *14855:A2 *14848:A 0
12 *14943:A2 *14848:A 9.84851e-05
13 *14943:A2 *271:14 4.34745e-05
14 *14943:B1 *14848:A 5.67058e-05
15 *14943:B1 *271:14 0.000143655
16 *31:15 *271:38 8.76787e-05
17 *220:38 *271:14 7.03766e-05
18 *247:28 *14848:A 4.00259e-06
19 *247:32 *14848:A 0
20 *252:35 *271:38 0.00405638
21 *269:21 *271:14 0
*RES
1 *15007:Q *271:4 23 
2 *271:4 *271:14 45.2871 
3 *271:14 *14848:A 26.8529 
4 *271:14 *14943:A1 23 
5 *271:4 *271:32 2.18536 
6 *271:32 *271:34 115.202 
7 *271:34 *271:36 15 
8 *271:36 *271:38 69.8693 
9 *271:38 *15062:A 38.6214 
*END

*D_NET *272 0.0320034
*CONN
*I *14856:A I *D sky130_fd_sc_hd__and3_1
*I *14940:A I *D sky130_fd_sc_hd__or2_1
*I *15063:A I *D sky130_fd_sc_hd__clkbuf_4
*I *15008:Q O *D sky130_fd_sc_hd__dfrtp_4
*CAP
1 *14856:A 9.34947e-05
2 *14940:A 0
3 *15063:A 0
4 *15008:Q 0
5 *272:31 0.000749934
6 *272:10 0.0123765
7 *272:8 0.0123765
8 *272:6 0.00272226
9 *272:4 0.0033787
10 *14856:C *14856:A 1.32314e-05
11 *51:10 *272:31 0
12 *222:70 *272:31 6.63801e-05
13 *233:58 *14856:A 0.000171296
14 *233:58 *272:31 5.50106e-05
15 *253:40 *272:31 0
*RES
1 *15008:Q *272:4 23 
2 *272:4 *272:6 45.4057 
3 *272:6 *272:8 15 
4 *272:8 *272:10 242.419 
5 *272:10 *15063:A 38 
6 *272:4 *272:31 42.2214 
7 *272:31 *14940:A 23 
8 *272:31 *14856:A 25.0507 
*END
