*SPEF "ieee 1481-1999"
*DESIGN "computer"
*DATE "11:11:11 Fri 11 11, 1111"
*VENDOR "OpenRCX"
*PROGRAM "Parallel Extraction"
*VERSION "1.0"
*DESIGN_FLOW "NAME_SCOPE LOCAL" "PIN_CAP NONE"
*DIVIDER /
*DELIMITER :
*BUS_DELIMITER []
*T_UNIT 1 NS
*C_UNIT 1 PF
*R_UNIT 1 OHM
*L_UNIT 1 HENRY

*NAME_MAP
*1 net21
*2 net22
*3 net23
*4 net24
*5 net25
*6 net26
*7 net27
*8 net28
*9 net13
*10 net14
*11 net15
*12 net16
*13 net17
*14 net18
*15 net19
*16 net20
*19 clk
*20 net10
*21 net11
*22 net12
*23 flags_out[3]
*24 net3
*25 net4
*26 net5
*27 net6
*28 net7
*29 net8
*30 net9
*31 rst
*32 _00_
*33 net1
*34 net2
*35 net29
*36 FILLER_0_0_106
*37 FILLER_0_0_113
*38 FILLER_0_0_125
*39 FILLER_0_0_137
*40 FILLER_0_0_141
*41 FILLER_0_0_15
*42 FILLER_0_0_153
*43 FILLER_0_0_165
*44 FILLER_0_0_169
*45 FILLER_0_0_181
*46 FILLER_0_0_193
*47 FILLER_0_0_197
*48 FILLER_0_0_209
*49 FILLER_0_0_213
*50 FILLER_0_0_221
*51 FILLER_0_0_225
*52 FILLER_0_0_237
*53 FILLER_0_0_249
*54 FILLER_0_0_253
*55 FILLER_0_0_265
*56 FILLER_0_0_27
*57 FILLER_0_0_277
*58 FILLER_0_0_281
*59 FILLER_0_0_29
*60 FILLER_0_0_293
*61 FILLER_0_0_3
*62 FILLER_0_0_305
*63 FILLER_0_0_309
*64 FILLER_0_0_321
*65 FILLER_0_0_335
*66 FILLER_0_0_337
*67 FILLER_0_0_349
*68 FILLER_0_0_361
*69 FILLER_0_0_365
*70 FILLER_0_0_377
*71 FILLER_0_0_389
*72 FILLER_0_0_393
*73 FILLER_0_0_405
*74 FILLER_0_0_41
*75 FILLER_0_0_417
*76 FILLER_0_0_421
*77 FILLER_0_0_433
*78 FILLER_0_0_445
*79 FILLER_0_0_452
*80 FILLER_0_0_464
*81 FILLER_0_0_477
*82 FILLER_0_0_489
*83 FILLER_0_0_501
*84 FILLER_0_0_505
*85 FILLER_0_0_517
*86 FILLER_0_0_529
*87 FILLER_0_0_53
*88 FILLER_0_0_533
*89 FILLER_0_0_545
*90 FILLER_0_0_557
*91 FILLER_0_0_564
*92 FILLER_0_0_57
*93 FILLER_0_0_576
*94 FILLER_0_0_589
*95 FILLER_0_0_601
*96 FILLER_0_0_613
*97 FILLER_0_0_617
*98 FILLER_0_0_629
*99 FILLER_0_0_641
*100 FILLER_0_0_645
*101 FILLER_0_0_657
*102 FILLER_0_0_669
*103 FILLER_0_0_673
*104 FILLER_0_0_682
*105 FILLER_0_0_69
*106 FILLER_0_0_694
*107 FILLER_0_0_701
*108 FILLER_0_0_713
*109 FILLER_0_0_725
*110 FILLER_0_0_729
*111 FILLER_0_0_741
*112 FILLER_0_0_753
*113 FILLER_0_0_757
*114 FILLER_0_0_769
*115 FILLER_0_0_781
*116 FILLER_0_0_785
*117 FILLER_0_0_797
*118 FILLER_0_0_801
*119 FILLER_0_0_809
*120 FILLER_0_0_81
*121 FILLER_0_0_813
*122 FILLER_0_0_821
*123 FILLER_0_0_85
*124 FILLER_0_0_94
*125 FILLER_0_100_109
*126 FILLER_0_100_121
*127 FILLER_0_100_133
*128 FILLER_0_100_139
*129 FILLER_0_100_141
*130 FILLER_0_100_153
*131 FILLER_0_100_165
*132 FILLER_0_100_177
*133 FILLER_0_100_18
*134 FILLER_0_100_189
*135 FILLER_0_100_195
*136 FILLER_0_100_197
*137 FILLER_0_100_209
*138 FILLER_0_100_221
*139 FILLER_0_100_233
*140 FILLER_0_100_245
*141 FILLER_0_100_251
*142 FILLER_0_100_253
*143 FILLER_0_100_26
*144 FILLER_0_100_265
*145 FILLER_0_100_277
*146 FILLER_0_100_289
*147 FILLER_0_100_29
*148 FILLER_0_100_301
*149 FILLER_0_100_307
*150 FILLER_0_100_309
*151 FILLER_0_100_321
*152 FILLER_0_100_333
*153 FILLER_0_100_345
*154 FILLER_0_100_357
*155 FILLER_0_100_363
*156 FILLER_0_100_365
*157 FILLER_0_100_377
*158 FILLER_0_100_389
*159 FILLER_0_100_401
*160 FILLER_0_100_41
*161 FILLER_0_100_413
*162 FILLER_0_100_419
*163 FILLER_0_100_421
*164 FILLER_0_100_433
*165 FILLER_0_100_445
*166 FILLER_0_100_457
*167 FILLER_0_100_469
*168 FILLER_0_100_475
*169 FILLER_0_100_477
*170 FILLER_0_100_489
*171 FILLER_0_100_501
*172 FILLER_0_100_513
*173 FILLER_0_100_525
*174 FILLER_0_100_53
*175 FILLER_0_100_531
*176 FILLER_0_100_533
*177 FILLER_0_100_545
*178 FILLER_0_100_557
*179 FILLER_0_100_569
*180 FILLER_0_100_581
*181 FILLER_0_100_587
*182 FILLER_0_100_589
*183 FILLER_0_100_6
*184 FILLER_0_100_601
*185 FILLER_0_100_613
*186 FILLER_0_100_625
*187 FILLER_0_100_637
*188 FILLER_0_100_643
*189 FILLER_0_100_645
*190 FILLER_0_100_65
*191 FILLER_0_100_657
*192 FILLER_0_100_669
*193 FILLER_0_100_681
*194 FILLER_0_100_693
*195 FILLER_0_100_699
*196 FILLER_0_100_701
*197 FILLER_0_100_713
*198 FILLER_0_100_725
*199 FILLER_0_100_737
*200 FILLER_0_100_749
*201 FILLER_0_100_755
*202 FILLER_0_100_757
*203 FILLER_0_100_769
*204 FILLER_0_100_77
*205 FILLER_0_100_781
*206 FILLER_0_100_793
*207 FILLER_0_100_805
*208 FILLER_0_100_811
*209 FILLER_0_100_813
*210 FILLER_0_100_821
*211 FILLER_0_100_83
*212 FILLER_0_100_85
*213 FILLER_0_100_97
*214 FILLER_0_101_105
*215 FILLER_0_101_111
*216 FILLER_0_101_113
*217 FILLER_0_101_125
*218 FILLER_0_101_137
*219 FILLER_0_101_149
*220 FILLER_0_101_15
*221 FILLER_0_101_161
*222 FILLER_0_101_167
*223 FILLER_0_101_169
*224 FILLER_0_101_181
*225 FILLER_0_101_193
*226 FILLER_0_101_205
*227 FILLER_0_101_217
*228 FILLER_0_101_223
*229 FILLER_0_101_225
*230 FILLER_0_101_237
*231 FILLER_0_101_249
*232 FILLER_0_101_261
*233 FILLER_0_101_27
*234 FILLER_0_101_273
*235 FILLER_0_101_279
*236 FILLER_0_101_281
*237 FILLER_0_101_293
*238 FILLER_0_101_3
*239 FILLER_0_101_305
*240 FILLER_0_101_317
*241 FILLER_0_101_329
*242 FILLER_0_101_335
*243 FILLER_0_101_337
*244 FILLER_0_101_349
*245 FILLER_0_101_361
*246 FILLER_0_101_373
*247 FILLER_0_101_385
*248 FILLER_0_101_39
*249 FILLER_0_101_391
*250 FILLER_0_101_393
*251 FILLER_0_101_405
*252 FILLER_0_101_417
*253 FILLER_0_101_429
*254 FILLER_0_101_441
*255 FILLER_0_101_447
*256 FILLER_0_101_449
*257 FILLER_0_101_461
*258 FILLER_0_101_473
*259 FILLER_0_101_485
*260 FILLER_0_101_497
*261 FILLER_0_101_503
*262 FILLER_0_101_505
*263 FILLER_0_101_51
*264 FILLER_0_101_517
*265 FILLER_0_101_529
*266 FILLER_0_101_541
*267 FILLER_0_101_55
*268 FILLER_0_101_553
*269 FILLER_0_101_559
*270 FILLER_0_101_561
*271 FILLER_0_101_57
*272 FILLER_0_101_573
*273 FILLER_0_101_585
*274 FILLER_0_101_597
*275 FILLER_0_101_609
*276 FILLER_0_101_615
*277 FILLER_0_101_617
*278 FILLER_0_101_629
*279 FILLER_0_101_641
*280 FILLER_0_101_653
*281 FILLER_0_101_665
*282 FILLER_0_101_671
*283 FILLER_0_101_673
*284 FILLER_0_101_685
*285 FILLER_0_101_69
*286 FILLER_0_101_697
*287 FILLER_0_101_709
*288 FILLER_0_101_721
*289 FILLER_0_101_727
*290 FILLER_0_101_729
*291 FILLER_0_101_741
*292 FILLER_0_101_753
*293 FILLER_0_101_765
*294 FILLER_0_101_777
*295 FILLER_0_101_783
*296 FILLER_0_101_785
*297 FILLER_0_101_797
*298 FILLER_0_101_809
*299 FILLER_0_101_81
*300 FILLER_0_101_821
*301 FILLER_0_101_93
*302 FILLER_0_102_109
*303 FILLER_0_102_121
*304 FILLER_0_102_133
*305 FILLER_0_102_139
*306 FILLER_0_102_141
*307 FILLER_0_102_15
*308 FILLER_0_102_153
*309 FILLER_0_102_165
*310 FILLER_0_102_177
*311 FILLER_0_102_189
*312 FILLER_0_102_195
*313 FILLER_0_102_197
*314 FILLER_0_102_209
*315 FILLER_0_102_221
*316 FILLER_0_102_233
*317 FILLER_0_102_245
*318 FILLER_0_102_251
*319 FILLER_0_102_253
*320 FILLER_0_102_265
*321 FILLER_0_102_27
*322 FILLER_0_102_277
*323 FILLER_0_102_289
*324 FILLER_0_102_29
*325 FILLER_0_102_3
*326 FILLER_0_102_301
*327 FILLER_0_102_307
*328 FILLER_0_102_309
*329 FILLER_0_102_321
*330 FILLER_0_102_333
*331 FILLER_0_102_345
*332 FILLER_0_102_357
*333 FILLER_0_102_363
*334 FILLER_0_102_365
*335 FILLER_0_102_377
*336 FILLER_0_102_389
*337 FILLER_0_102_401
*338 FILLER_0_102_41
*339 FILLER_0_102_413
*340 FILLER_0_102_419
*341 FILLER_0_102_421
*342 FILLER_0_102_433
*343 FILLER_0_102_445
*344 FILLER_0_102_457
*345 FILLER_0_102_469
*346 FILLER_0_102_475
*347 FILLER_0_102_477
*348 FILLER_0_102_489
*349 FILLER_0_102_501
*350 FILLER_0_102_513
*351 FILLER_0_102_525
*352 FILLER_0_102_53
*353 FILLER_0_102_531
*354 FILLER_0_102_533
*355 FILLER_0_102_545
*356 FILLER_0_102_557
*357 FILLER_0_102_569
*358 FILLER_0_102_581
*359 FILLER_0_102_587
*360 FILLER_0_102_589
*361 FILLER_0_102_601
*362 FILLER_0_102_613
*363 FILLER_0_102_625
*364 FILLER_0_102_637
*365 FILLER_0_102_643
*366 FILLER_0_102_645
*367 FILLER_0_102_65
*368 FILLER_0_102_657
*369 FILLER_0_102_669
*370 FILLER_0_102_681
*371 FILLER_0_102_693
*372 FILLER_0_102_699
*373 FILLER_0_102_701
*374 FILLER_0_102_713
*375 FILLER_0_102_725
*376 FILLER_0_102_737
*377 FILLER_0_102_749
*378 FILLER_0_102_755
*379 FILLER_0_102_757
*380 FILLER_0_102_769
*381 FILLER_0_102_77
*382 FILLER_0_102_781
*383 FILLER_0_102_793
*384 FILLER_0_102_805
*385 FILLER_0_102_811
*386 FILLER_0_102_813
*387 FILLER_0_102_821
*388 FILLER_0_102_83
*389 FILLER_0_102_85
*390 FILLER_0_102_97
*391 FILLER_0_103_105
*392 FILLER_0_103_111
*393 FILLER_0_103_113
*394 FILLER_0_103_125
*395 FILLER_0_103_137
*396 FILLER_0_103_149
*397 FILLER_0_103_15
*398 FILLER_0_103_161
*399 FILLER_0_103_167
*400 FILLER_0_103_169
*401 FILLER_0_103_181
*402 FILLER_0_103_193
*403 FILLER_0_103_205
*404 FILLER_0_103_217
*405 FILLER_0_103_223
*406 FILLER_0_103_225
*407 FILLER_0_103_237
*408 FILLER_0_103_249
*409 FILLER_0_103_261
*410 FILLER_0_103_27
*411 FILLER_0_103_273
*412 FILLER_0_103_279
*413 FILLER_0_103_281
*414 FILLER_0_103_293
*415 FILLER_0_103_3
*416 FILLER_0_103_305
*417 FILLER_0_103_317
*418 FILLER_0_103_329
*419 FILLER_0_103_335
*420 FILLER_0_103_337
*421 FILLER_0_103_349
*422 FILLER_0_103_361
*423 FILLER_0_103_373
*424 FILLER_0_103_385
*425 FILLER_0_103_39
*426 FILLER_0_103_391
*427 FILLER_0_103_393
*428 FILLER_0_103_405
*429 FILLER_0_103_417
*430 FILLER_0_103_429
*431 FILLER_0_103_441
*432 FILLER_0_103_447
*433 FILLER_0_103_449
*434 FILLER_0_103_461
*435 FILLER_0_103_473
*436 FILLER_0_103_485
*437 FILLER_0_103_497
*438 FILLER_0_103_503
*439 FILLER_0_103_505
*440 FILLER_0_103_51
*441 FILLER_0_103_517
*442 FILLER_0_103_529
*443 FILLER_0_103_541
*444 FILLER_0_103_55
*445 FILLER_0_103_553
*446 FILLER_0_103_559
*447 FILLER_0_103_561
*448 FILLER_0_103_57
*449 FILLER_0_103_573
*450 FILLER_0_103_585
*451 FILLER_0_103_597
*452 FILLER_0_103_609
*453 FILLER_0_103_615
*454 FILLER_0_103_617
*455 FILLER_0_103_629
*456 FILLER_0_103_641
*457 FILLER_0_103_653
*458 FILLER_0_103_665
*459 FILLER_0_103_671
*460 FILLER_0_103_673
*461 FILLER_0_103_685
*462 FILLER_0_103_69
*463 FILLER_0_103_697
*464 FILLER_0_103_709
*465 FILLER_0_103_721
*466 FILLER_0_103_727
*467 FILLER_0_103_729
*468 FILLER_0_103_741
*469 FILLER_0_103_753
*470 FILLER_0_103_765
*471 FILLER_0_103_777
*472 FILLER_0_103_783
*473 FILLER_0_103_785
*474 FILLER_0_103_797
*475 FILLER_0_103_809
*476 FILLER_0_103_81
*477 FILLER_0_103_821
*478 FILLER_0_103_93
*479 FILLER_0_104_109
*480 FILLER_0_104_121
*481 FILLER_0_104_133
*482 FILLER_0_104_139
*483 FILLER_0_104_141
*484 FILLER_0_104_15
*485 FILLER_0_104_153
*486 FILLER_0_104_165
*487 FILLER_0_104_177
*488 FILLER_0_104_189
*489 FILLER_0_104_195
*490 FILLER_0_104_197
*491 FILLER_0_104_209
*492 FILLER_0_104_221
*493 FILLER_0_104_233
*494 FILLER_0_104_245
*495 FILLER_0_104_251
*496 FILLER_0_104_253
*497 FILLER_0_104_265
*498 FILLER_0_104_27
*499 FILLER_0_104_277
*500 FILLER_0_104_289
*501 FILLER_0_104_29
*502 FILLER_0_104_3
*503 FILLER_0_104_301
*504 FILLER_0_104_307
*505 FILLER_0_104_309
*506 FILLER_0_104_321
*507 FILLER_0_104_333
*508 FILLER_0_104_345
*509 FILLER_0_104_357
*510 FILLER_0_104_363
*511 FILLER_0_104_365
*512 FILLER_0_104_377
*513 FILLER_0_104_389
*514 FILLER_0_104_401
*515 FILLER_0_104_41
*516 FILLER_0_104_413
*517 FILLER_0_104_419
*518 FILLER_0_104_421
*519 FILLER_0_104_433
*520 FILLER_0_104_445
*521 FILLER_0_104_457
*522 FILLER_0_104_469
*523 FILLER_0_104_475
*524 FILLER_0_104_477
*525 FILLER_0_104_489
*526 FILLER_0_104_501
*527 FILLER_0_104_513
*528 FILLER_0_104_525
*529 FILLER_0_104_53
*530 FILLER_0_104_531
*531 FILLER_0_104_533
*532 FILLER_0_104_545
*533 FILLER_0_104_557
*534 FILLER_0_104_569
*535 FILLER_0_104_581
*536 FILLER_0_104_587
*537 FILLER_0_104_589
*538 FILLER_0_104_601
*539 FILLER_0_104_613
*540 FILLER_0_104_625
*541 FILLER_0_104_637
*542 FILLER_0_104_643
*543 FILLER_0_104_645
*544 FILLER_0_104_65
*545 FILLER_0_104_657
*546 FILLER_0_104_669
*547 FILLER_0_104_681
*548 FILLER_0_104_693
*549 FILLER_0_104_699
*550 FILLER_0_104_701
*551 FILLER_0_104_713
*552 FILLER_0_104_725
*553 FILLER_0_104_737
*554 FILLER_0_104_749
*555 FILLER_0_104_755
*556 FILLER_0_104_757
*557 FILLER_0_104_769
*558 FILLER_0_104_77
*559 FILLER_0_104_781
*560 FILLER_0_104_793
*561 FILLER_0_104_805
*562 FILLER_0_104_811
*563 FILLER_0_104_813
*564 FILLER_0_104_821
*565 FILLER_0_104_83
*566 FILLER_0_104_85
*567 FILLER_0_104_97
*568 FILLER_0_105_105
*569 FILLER_0_105_111
*570 FILLER_0_105_113
*571 FILLER_0_105_125
*572 FILLER_0_105_137
*573 FILLER_0_105_149
*574 FILLER_0_105_15
*575 FILLER_0_105_161
*576 FILLER_0_105_167
*577 FILLER_0_105_169
*578 FILLER_0_105_181
*579 FILLER_0_105_193
*580 FILLER_0_105_205
*581 FILLER_0_105_217
*582 FILLER_0_105_223
*583 FILLER_0_105_225
*584 FILLER_0_105_237
*585 FILLER_0_105_249
*586 FILLER_0_105_261
*587 FILLER_0_105_27
*588 FILLER_0_105_273
*589 FILLER_0_105_279
*590 FILLER_0_105_281
*591 FILLER_0_105_293
*592 FILLER_0_105_3
*593 FILLER_0_105_305
*594 FILLER_0_105_317
*595 FILLER_0_105_329
*596 FILLER_0_105_335
*597 FILLER_0_105_337
*598 FILLER_0_105_349
*599 FILLER_0_105_361
*600 FILLER_0_105_373
*601 FILLER_0_105_385
*602 FILLER_0_105_39
*603 FILLER_0_105_391
*604 FILLER_0_105_393
*605 FILLER_0_105_405
*606 FILLER_0_105_417
*607 FILLER_0_105_429
*608 FILLER_0_105_441
*609 FILLER_0_105_447
*610 FILLER_0_105_449
*611 FILLER_0_105_461
*612 FILLER_0_105_473
*613 FILLER_0_105_485
*614 FILLER_0_105_497
*615 FILLER_0_105_503
*616 FILLER_0_105_505
*617 FILLER_0_105_51
*618 FILLER_0_105_517
*619 FILLER_0_105_529
*620 FILLER_0_105_541
*621 FILLER_0_105_55
*622 FILLER_0_105_553
*623 FILLER_0_105_559
*624 FILLER_0_105_561
*625 FILLER_0_105_57
*626 FILLER_0_105_573
*627 FILLER_0_105_585
*628 FILLER_0_105_597
*629 FILLER_0_105_609
*630 FILLER_0_105_615
*631 FILLER_0_105_617
*632 FILLER_0_105_629
*633 FILLER_0_105_641
*634 FILLER_0_105_653
*635 FILLER_0_105_665
*636 FILLER_0_105_671
*637 FILLER_0_105_673
*638 FILLER_0_105_685
*639 FILLER_0_105_69
*640 FILLER_0_105_697
*641 FILLER_0_105_709
*642 FILLER_0_105_721
*643 FILLER_0_105_727
*644 FILLER_0_105_729
*645 FILLER_0_105_741
*646 FILLER_0_105_753
*647 FILLER_0_105_765
*648 FILLER_0_105_777
*649 FILLER_0_105_783
*650 FILLER_0_105_785
*651 FILLER_0_105_797
*652 FILLER_0_105_809
*653 FILLER_0_105_81
*654 FILLER_0_105_821
*655 FILLER_0_105_93
*656 FILLER_0_106_109
*657 FILLER_0_106_121
*658 FILLER_0_106_133
*659 FILLER_0_106_139
*660 FILLER_0_106_141
*661 FILLER_0_106_15
*662 FILLER_0_106_153
*663 FILLER_0_106_165
*664 FILLER_0_106_177
*665 FILLER_0_106_189
*666 FILLER_0_106_195
*667 FILLER_0_106_197
*668 FILLER_0_106_209
*669 FILLER_0_106_221
*670 FILLER_0_106_233
*671 FILLER_0_106_245
*672 FILLER_0_106_251
*673 FILLER_0_106_253
*674 FILLER_0_106_265
*675 FILLER_0_106_27
*676 FILLER_0_106_277
*677 FILLER_0_106_289
*678 FILLER_0_106_29
*679 FILLER_0_106_3
*680 FILLER_0_106_301
*681 FILLER_0_106_307
*682 FILLER_0_106_309
*683 FILLER_0_106_321
*684 FILLER_0_106_333
*685 FILLER_0_106_345
*686 FILLER_0_106_357
*687 FILLER_0_106_363
*688 FILLER_0_106_365
*689 FILLER_0_106_377
*690 FILLER_0_106_389
*691 FILLER_0_106_401
*692 FILLER_0_106_41
*693 FILLER_0_106_413
*694 FILLER_0_106_419
*695 FILLER_0_106_421
*696 FILLER_0_106_433
*697 FILLER_0_106_445
*698 FILLER_0_106_457
*699 FILLER_0_106_469
*700 FILLER_0_106_475
*701 FILLER_0_106_477
*702 FILLER_0_106_489
*703 FILLER_0_106_501
*704 FILLER_0_106_513
*705 FILLER_0_106_525
*706 FILLER_0_106_53
*707 FILLER_0_106_531
*708 FILLER_0_106_533
*709 FILLER_0_106_545
*710 FILLER_0_106_557
*711 FILLER_0_106_569
*712 FILLER_0_106_581
*713 FILLER_0_106_587
*714 FILLER_0_106_589
*715 FILLER_0_106_601
*716 FILLER_0_106_613
*717 FILLER_0_106_625
*718 FILLER_0_106_637
*719 FILLER_0_106_643
*720 FILLER_0_106_645
*721 FILLER_0_106_65
*722 FILLER_0_106_657
*723 FILLER_0_106_669
*724 FILLER_0_106_681
*725 FILLER_0_106_693
*726 FILLER_0_106_699
*727 FILLER_0_106_701
*728 FILLER_0_106_713
*729 FILLER_0_106_725
*730 FILLER_0_106_737
*731 FILLER_0_106_749
*732 FILLER_0_106_755
*733 FILLER_0_106_757
*734 FILLER_0_106_769
*735 FILLER_0_106_77
*736 FILLER_0_106_781
*737 FILLER_0_106_793
*738 FILLER_0_106_805
*739 FILLER_0_106_811
*740 FILLER_0_106_813
*741 FILLER_0_106_821
*742 FILLER_0_106_83
*743 FILLER_0_106_85
*744 FILLER_0_106_97
*745 FILLER_0_107_105
*746 FILLER_0_107_111
*747 FILLER_0_107_113
*748 FILLER_0_107_125
*749 FILLER_0_107_137
*750 FILLER_0_107_149
*751 FILLER_0_107_15
*752 FILLER_0_107_161
*753 FILLER_0_107_167
*754 FILLER_0_107_169
*755 FILLER_0_107_181
*756 FILLER_0_107_193
*757 FILLER_0_107_205
*758 FILLER_0_107_217
*759 FILLER_0_107_223
*760 FILLER_0_107_225
*761 FILLER_0_107_237
*762 FILLER_0_107_249
*763 FILLER_0_107_261
*764 FILLER_0_107_27
*765 FILLER_0_107_273
*766 FILLER_0_107_279
*767 FILLER_0_107_281
*768 FILLER_0_107_293
*769 FILLER_0_107_3
*770 FILLER_0_107_305
*771 FILLER_0_107_317
*772 FILLER_0_107_329
*773 FILLER_0_107_335
*774 FILLER_0_107_337
*775 FILLER_0_107_349
*776 FILLER_0_107_361
*777 FILLER_0_107_373
*778 FILLER_0_107_385
*779 FILLER_0_107_39
*780 FILLER_0_107_391
*781 FILLER_0_107_393
*782 FILLER_0_107_405
*783 FILLER_0_107_417
*784 FILLER_0_107_429
*785 FILLER_0_107_441
*786 FILLER_0_107_447
*787 FILLER_0_107_449
*788 FILLER_0_107_461
*789 FILLER_0_107_473
*790 FILLER_0_107_485
*791 FILLER_0_107_497
*792 FILLER_0_107_503
*793 FILLER_0_107_505
*794 FILLER_0_107_51
*795 FILLER_0_107_517
*796 FILLER_0_107_529
*797 FILLER_0_107_541
*798 FILLER_0_107_55
*799 FILLER_0_107_553
*800 FILLER_0_107_559
*801 FILLER_0_107_561
*802 FILLER_0_107_57
*803 FILLER_0_107_573
*804 FILLER_0_107_585
*805 FILLER_0_107_597
*806 FILLER_0_107_609
*807 FILLER_0_107_615
*808 FILLER_0_107_617
*809 FILLER_0_107_629
*810 FILLER_0_107_641
*811 FILLER_0_107_653
*812 FILLER_0_107_665
*813 FILLER_0_107_671
*814 FILLER_0_107_673
*815 FILLER_0_107_685
*816 FILLER_0_107_69
*817 FILLER_0_107_697
*818 FILLER_0_107_709
*819 FILLER_0_107_721
*820 FILLER_0_107_727
*821 FILLER_0_107_729
*822 FILLER_0_107_741
*823 FILLER_0_107_753
*824 FILLER_0_107_765
*825 FILLER_0_107_777
*826 FILLER_0_107_783
*827 FILLER_0_107_785
*828 FILLER_0_107_797
*829 FILLER_0_107_809
*830 FILLER_0_107_81
*831 FILLER_0_107_821
*832 FILLER_0_107_93
*833 FILLER_0_108_109
*834 FILLER_0_108_121
*835 FILLER_0_108_133
*836 FILLER_0_108_139
*837 FILLER_0_108_141
*838 FILLER_0_108_15
*839 FILLER_0_108_153
*840 FILLER_0_108_165
*841 FILLER_0_108_177
*842 FILLER_0_108_189
*843 FILLER_0_108_195
*844 FILLER_0_108_197
*845 FILLER_0_108_209
*846 FILLER_0_108_221
*847 FILLER_0_108_233
*848 FILLER_0_108_245
*849 FILLER_0_108_251
*850 FILLER_0_108_253
*851 FILLER_0_108_265
*852 FILLER_0_108_27
*853 FILLER_0_108_277
*854 FILLER_0_108_289
*855 FILLER_0_108_29
*856 FILLER_0_108_3
*857 FILLER_0_108_301
*858 FILLER_0_108_307
*859 FILLER_0_108_309
*860 FILLER_0_108_321
*861 FILLER_0_108_333
*862 FILLER_0_108_345
*863 FILLER_0_108_357
*864 FILLER_0_108_363
*865 FILLER_0_108_365
*866 FILLER_0_108_377
*867 FILLER_0_108_389
*868 FILLER_0_108_401
*869 FILLER_0_108_41
*870 FILLER_0_108_413
*871 FILLER_0_108_419
*872 FILLER_0_108_421
*873 FILLER_0_108_433
*874 FILLER_0_108_445
*875 FILLER_0_108_457
*876 FILLER_0_108_469
*877 FILLER_0_108_475
*878 FILLER_0_108_477
*879 FILLER_0_108_489
*880 FILLER_0_108_501
*881 FILLER_0_108_513
*882 FILLER_0_108_525
*883 FILLER_0_108_53
*884 FILLER_0_108_531
*885 FILLER_0_108_533
*886 FILLER_0_108_545
*887 FILLER_0_108_557
*888 FILLER_0_108_569
*889 FILLER_0_108_581
*890 FILLER_0_108_587
*891 FILLER_0_108_589
*892 FILLER_0_108_601
*893 FILLER_0_108_613
*894 FILLER_0_108_625
*895 FILLER_0_108_637
*896 FILLER_0_108_643
*897 FILLER_0_108_645
*898 FILLER_0_108_65
*899 FILLER_0_108_657
*900 FILLER_0_108_669
*901 FILLER_0_108_681
*902 FILLER_0_108_693
*903 FILLER_0_108_699
*904 FILLER_0_108_701
*905 FILLER_0_108_713
*906 FILLER_0_108_725
*907 FILLER_0_108_737
*908 FILLER_0_108_749
*909 FILLER_0_108_755
*910 FILLER_0_108_757
*911 FILLER_0_108_769
*912 FILLER_0_108_77
*913 FILLER_0_108_781
*914 FILLER_0_108_793
*915 FILLER_0_108_805
*916 FILLER_0_108_811
*917 FILLER_0_108_813
*918 FILLER_0_108_821
*919 FILLER_0_108_83
*920 FILLER_0_108_85
*921 FILLER_0_108_97
*922 FILLER_0_109_105
*923 FILLER_0_109_111
*924 FILLER_0_109_113
*925 FILLER_0_109_125
*926 FILLER_0_109_137
*927 FILLER_0_109_149
*928 FILLER_0_109_15
*929 FILLER_0_109_161
*930 FILLER_0_109_167
*931 FILLER_0_109_169
*932 FILLER_0_109_181
*933 FILLER_0_109_193
*934 FILLER_0_109_205
*935 FILLER_0_109_217
*936 FILLER_0_109_223
*937 FILLER_0_109_225
*938 FILLER_0_109_237
*939 FILLER_0_109_249
*940 FILLER_0_109_261
*941 FILLER_0_109_27
*942 FILLER_0_109_273
*943 FILLER_0_109_279
*944 FILLER_0_109_281
*945 FILLER_0_109_293
*946 FILLER_0_109_3
*947 FILLER_0_109_305
*948 FILLER_0_109_317
*949 FILLER_0_109_329
*950 FILLER_0_109_335
*951 FILLER_0_109_337
*952 FILLER_0_109_349
*953 FILLER_0_109_361
*954 FILLER_0_109_373
*955 FILLER_0_109_385
*956 FILLER_0_109_39
*957 FILLER_0_109_391
*958 FILLER_0_109_393
*959 FILLER_0_109_405
*960 FILLER_0_109_417
*961 FILLER_0_109_429
*962 FILLER_0_109_441
*963 FILLER_0_109_447
*964 FILLER_0_109_449
*965 FILLER_0_109_461
*966 FILLER_0_109_473
*967 FILLER_0_109_485
*968 FILLER_0_109_497
*969 FILLER_0_109_503
*970 FILLER_0_109_505
*971 FILLER_0_109_51
*972 FILLER_0_109_517
*973 FILLER_0_109_529
*974 FILLER_0_109_541
*975 FILLER_0_109_55
*976 FILLER_0_109_553
*977 FILLER_0_109_559
*978 FILLER_0_109_561
*979 FILLER_0_109_57
*980 FILLER_0_109_573
*981 FILLER_0_109_585
*982 FILLER_0_109_597
*983 FILLER_0_109_609
*984 FILLER_0_109_615
*985 FILLER_0_109_617
*986 FILLER_0_109_629
*987 FILLER_0_109_641
*988 FILLER_0_109_653
*989 FILLER_0_109_665
*990 FILLER_0_109_671
*991 FILLER_0_109_673
*992 FILLER_0_109_685
*993 FILLER_0_109_69
*994 FILLER_0_109_697
*995 FILLER_0_109_709
*996 FILLER_0_109_721
*997 FILLER_0_109_727
*998 FILLER_0_109_729
*999 FILLER_0_109_741
*1000 FILLER_0_109_753
*1001 FILLER_0_109_765
*1002 FILLER_0_109_777
*1003 FILLER_0_109_783
*1004 FILLER_0_109_785
*1005 FILLER_0_109_797
*1006 FILLER_0_109_809
*1007 FILLER_0_109_81
*1008 FILLER_0_109_821
*1009 FILLER_0_109_93
*1010 FILLER_0_10_109
*1011 FILLER_0_10_121
*1012 FILLER_0_10_133
*1013 FILLER_0_10_139
*1014 FILLER_0_10_141
*1015 FILLER_0_10_15
*1016 FILLER_0_10_153
*1017 FILLER_0_10_165
*1018 FILLER_0_10_177
*1019 FILLER_0_10_189
*1020 FILLER_0_10_195
*1021 FILLER_0_10_197
*1022 FILLER_0_10_209
*1023 FILLER_0_10_221
*1024 FILLER_0_10_233
*1025 FILLER_0_10_245
*1026 FILLER_0_10_251
*1027 FILLER_0_10_253
*1028 FILLER_0_10_265
*1029 FILLER_0_10_27
*1030 FILLER_0_10_277
*1031 FILLER_0_10_289
*1032 FILLER_0_10_29
*1033 FILLER_0_10_3
*1034 FILLER_0_10_301
*1035 FILLER_0_10_307
*1036 FILLER_0_10_309
*1037 FILLER_0_10_321
*1038 FILLER_0_10_333
*1039 FILLER_0_10_345
*1040 FILLER_0_10_357
*1041 FILLER_0_10_363
*1042 FILLER_0_10_365
*1043 FILLER_0_10_377
*1044 FILLER_0_10_389
*1045 FILLER_0_10_401
*1046 FILLER_0_10_41
*1047 FILLER_0_10_413
*1048 FILLER_0_10_419
*1049 FILLER_0_10_421
*1050 FILLER_0_10_433
*1051 FILLER_0_10_445
*1052 FILLER_0_10_457
*1053 FILLER_0_10_469
*1054 FILLER_0_10_475
*1055 FILLER_0_10_477
*1056 FILLER_0_10_489
*1057 FILLER_0_10_501
*1058 FILLER_0_10_513
*1059 FILLER_0_10_525
*1060 FILLER_0_10_53
*1061 FILLER_0_10_531
*1062 FILLER_0_10_533
*1063 FILLER_0_10_545
*1064 FILLER_0_10_557
*1065 FILLER_0_10_569
*1066 FILLER_0_10_581
*1067 FILLER_0_10_587
*1068 FILLER_0_10_589
*1069 FILLER_0_10_601
*1070 FILLER_0_10_613
*1071 FILLER_0_10_625
*1072 FILLER_0_10_637
*1073 FILLER_0_10_643
*1074 FILLER_0_10_645
*1075 FILLER_0_10_65
*1076 FILLER_0_10_657
*1077 FILLER_0_10_669
*1078 FILLER_0_10_681
*1079 FILLER_0_10_693
*1080 FILLER_0_10_699
*1081 FILLER_0_10_701
*1082 FILLER_0_10_713
*1083 FILLER_0_10_725
*1084 FILLER_0_10_737
*1085 FILLER_0_10_749
*1086 FILLER_0_10_755
*1087 FILLER_0_10_757
*1088 FILLER_0_10_769
*1089 FILLER_0_10_77
*1090 FILLER_0_10_781
*1091 FILLER_0_10_793
*1092 FILLER_0_10_805
*1093 FILLER_0_10_811
*1094 FILLER_0_10_813
*1095 FILLER_0_10_821
*1096 FILLER_0_10_83
*1097 FILLER_0_10_85
*1098 FILLER_0_10_97
*1099 FILLER_0_110_109
*1100 FILLER_0_110_121
*1101 FILLER_0_110_133
*1102 FILLER_0_110_139
*1103 FILLER_0_110_141
*1104 FILLER_0_110_15
*1105 FILLER_0_110_153
*1106 FILLER_0_110_165
*1107 FILLER_0_110_177
*1108 FILLER_0_110_189
*1109 FILLER_0_110_195
*1110 FILLER_0_110_197
*1111 FILLER_0_110_209
*1112 FILLER_0_110_221
*1113 FILLER_0_110_233
*1114 FILLER_0_110_245
*1115 FILLER_0_110_251
*1116 FILLER_0_110_253
*1117 FILLER_0_110_265
*1118 FILLER_0_110_27
*1119 FILLER_0_110_277
*1120 FILLER_0_110_289
*1121 FILLER_0_110_29
*1122 FILLER_0_110_3
*1123 FILLER_0_110_301
*1124 FILLER_0_110_307
*1125 FILLER_0_110_309
*1126 FILLER_0_110_321
*1127 FILLER_0_110_333
*1128 FILLER_0_110_345
*1129 FILLER_0_110_357
*1130 FILLER_0_110_363
*1131 FILLER_0_110_365
*1132 FILLER_0_110_377
*1133 FILLER_0_110_389
*1134 FILLER_0_110_401
*1135 FILLER_0_110_41
*1136 FILLER_0_110_413
*1137 FILLER_0_110_419
*1138 FILLER_0_110_421
*1139 FILLER_0_110_433
*1140 FILLER_0_110_445
*1141 FILLER_0_110_457
*1142 FILLER_0_110_469
*1143 FILLER_0_110_475
*1144 FILLER_0_110_477
*1145 FILLER_0_110_489
*1146 FILLER_0_110_501
*1147 FILLER_0_110_513
*1148 FILLER_0_110_525
*1149 FILLER_0_110_53
*1150 FILLER_0_110_531
*1151 FILLER_0_110_533
*1152 FILLER_0_110_545
*1153 FILLER_0_110_557
*1154 FILLER_0_110_569
*1155 FILLER_0_110_581
*1156 FILLER_0_110_587
*1157 FILLER_0_110_589
*1158 FILLER_0_110_601
*1159 FILLER_0_110_613
*1160 FILLER_0_110_625
*1161 FILLER_0_110_637
*1162 FILLER_0_110_643
*1163 FILLER_0_110_645
*1164 FILLER_0_110_65
*1165 FILLER_0_110_657
*1166 FILLER_0_110_669
*1167 FILLER_0_110_681
*1168 FILLER_0_110_693
*1169 FILLER_0_110_699
*1170 FILLER_0_110_701
*1171 FILLER_0_110_713
*1172 FILLER_0_110_725
*1173 FILLER_0_110_737
*1174 FILLER_0_110_749
*1175 FILLER_0_110_755
*1176 FILLER_0_110_757
*1177 FILLER_0_110_769
*1178 FILLER_0_110_77
*1179 FILLER_0_110_781
*1180 FILLER_0_110_793
*1181 FILLER_0_110_805
*1182 FILLER_0_110_811
*1183 FILLER_0_110_813
*1184 FILLER_0_110_821
*1185 FILLER_0_110_83
*1186 FILLER_0_110_85
*1187 FILLER_0_110_97
*1188 FILLER_0_111_105
*1189 FILLER_0_111_111
*1190 FILLER_0_111_113
*1191 FILLER_0_111_125
*1192 FILLER_0_111_137
*1193 FILLER_0_111_149
*1194 FILLER_0_111_15
*1195 FILLER_0_111_161
*1196 FILLER_0_111_167
*1197 FILLER_0_111_169
*1198 FILLER_0_111_181
*1199 FILLER_0_111_193
*1200 FILLER_0_111_205
*1201 FILLER_0_111_217
*1202 FILLER_0_111_223
*1203 FILLER_0_111_225
*1204 FILLER_0_111_237
*1205 FILLER_0_111_249
*1206 FILLER_0_111_261
*1207 FILLER_0_111_27
*1208 FILLER_0_111_273
*1209 FILLER_0_111_279
*1210 FILLER_0_111_281
*1211 FILLER_0_111_293
*1212 FILLER_0_111_3
*1213 FILLER_0_111_305
*1214 FILLER_0_111_317
*1215 FILLER_0_111_329
*1216 FILLER_0_111_335
*1217 FILLER_0_111_337
*1218 FILLER_0_111_349
*1219 FILLER_0_111_361
*1220 FILLER_0_111_373
*1221 FILLER_0_111_385
*1222 FILLER_0_111_39
*1223 FILLER_0_111_391
*1224 FILLER_0_111_393
*1225 FILLER_0_111_405
*1226 FILLER_0_111_417
*1227 FILLER_0_111_429
*1228 FILLER_0_111_441
*1229 FILLER_0_111_447
*1230 FILLER_0_111_449
*1231 FILLER_0_111_461
*1232 FILLER_0_111_473
*1233 FILLER_0_111_485
*1234 FILLER_0_111_497
*1235 FILLER_0_111_503
*1236 FILLER_0_111_505
*1237 FILLER_0_111_51
*1238 FILLER_0_111_517
*1239 FILLER_0_111_529
*1240 FILLER_0_111_541
*1241 FILLER_0_111_55
*1242 FILLER_0_111_553
*1243 FILLER_0_111_559
*1244 FILLER_0_111_561
*1245 FILLER_0_111_57
*1246 FILLER_0_111_573
*1247 FILLER_0_111_585
*1248 FILLER_0_111_597
*1249 FILLER_0_111_609
*1250 FILLER_0_111_615
*1251 FILLER_0_111_617
*1252 FILLER_0_111_629
*1253 FILLER_0_111_641
*1254 FILLER_0_111_653
*1255 FILLER_0_111_665
*1256 FILLER_0_111_671
*1257 FILLER_0_111_673
*1258 FILLER_0_111_685
*1259 FILLER_0_111_69
*1260 FILLER_0_111_697
*1261 FILLER_0_111_709
*1262 FILLER_0_111_721
*1263 FILLER_0_111_727
*1264 FILLER_0_111_729
*1265 FILLER_0_111_741
*1266 FILLER_0_111_753
*1267 FILLER_0_111_765
*1268 FILLER_0_111_777
*1269 FILLER_0_111_783
*1270 FILLER_0_111_785
*1271 FILLER_0_111_797
*1272 FILLER_0_111_809
*1273 FILLER_0_111_81
*1274 FILLER_0_111_817
*1275 FILLER_0_111_93
*1276 FILLER_0_112_109
*1277 FILLER_0_112_121
*1278 FILLER_0_112_133
*1279 FILLER_0_112_139
*1280 FILLER_0_112_141
*1281 FILLER_0_112_15
*1282 FILLER_0_112_153
*1283 FILLER_0_112_165
*1284 FILLER_0_112_177
*1285 FILLER_0_112_189
*1286 FILLER_0_112_195
*1287 FILLER_0_112_197
*1288 FILLER_0_112_209
*1289 FILLER_0_112_221
*1290 FILLER_0_112_233
*1291 FILLER_0_112_245
*1292 FILLER_0_112_251
*1293 FILLER_0_112_253
*1294 FILLER_0_112_265
*1295 FILLER_0_112_27
*1296 FILLER_0_112_277
*1297 FILLER_0_112_289
*1298 FILLER_0_112_29
*1299 FILLER_0_112_3
*1300 FILLER_0_112_301
*1301 FILLER_0_112_307
*1302 FILLER_0_112_309
*1303 FILLER_0_112_321
*1304 FILLER_0_112_333
*1305 FILLER_0_112_345
*1306 FILLER_0_112_357
*1307 FILLER_0_112_363
*1308 FILLER_0_112_365
*1309 FILLER_0_112_377
*1310 FILLER_0_112_389
*1311 FILLER_0_112_401
*1312 FILLER_0_112_41
*1313 FILLER_0_112_413
*1314 FILLER_0_112_419
*1315 FILLER_0_112_421
*1316 FILLER_0_112_433
*1317 FILLER_0_112_445
*1318 FILLER_0_112_457
*1319 FILLER_0_112_469
*1320 FILLER_0_112_475
*1321 FILLER_0_112_477
*1322 FILLER_0_112_489
*1323 FILLER_0_112_501
*1324 FILLER_0_112_513
*1325 FILLER_0_112_525
*1326 FILLER_0_112_53
*1327 FILLER_0_112_531
*1328 FILLER_0_112_533
*1329 FILLER_0_112_545
*1330 FILLER_0_112_557
*1331 FILLER_0_112_569
*1332 FILLER_0_112_581
*1333 FILLER_0_112_587
*1334 FILLER_0_112_589
*1335 FILLER_0_112_601
*1336 FILLER_0_112_613
*1337 FILLER_0_112_625
*1338 FILLER_0_112_637
*1339 FILLER_0_112_643
*1340 FILLER_0_112_645
*1341 FILLER_0_112_65
*1342 FILLER_0_112_657
*1343 FILLER_0_112_669
*1344 FILLER_0_112_681
*1345 FILLER_0_112_693
*1346 FILLER_0_112_699
*1347 FILLER_0_112_701
*1348 FILLER_0_112_713
*1349 FILLER_0_112_725
*1350 FILLER_0_112_737
*1351 FILLER_0_112_749
*1352 FILLER_0_112_755
*1353 FILLER_0_112_757
*1354 FILLER_0_112_769
*1355 FILLER_0_112_77
*1356 FILLER_0_112_781
*1357 FILLER_0_112_793
*1358 FILLER_0_112_805
*1359 FILLER_0_112_811
*1360 FILLER_0_112_813
*1361 FILLER_0_112_821
*1362 FILLER_0_112_83
*1363 FILLER_0_112_85
*1364 FILLER_0_112_97
*1365 FILLER_0_113_105
*1366 FILLER_0_113_111
*1367 FILLER_0_113_113
*1368 FILLER_0_113_125
*1369 FILLER_0_113_137
*1370 FILLER_0_113_149
*1371 FILLER_0_113_15
*1372 FILLER_0_113_161
*1373 FILLER_0_113_167
*1374 FILLER_0_113_169
*1375 FILLER_0_113_181
*1376 FILLER_0_113_193
*1377 FILLER_0_113_205
*1378 FILLER_0_113_217
*1379 FILLER_0_113_223
*1380 FILLER_0_113_225
*1381 FILLER_0_113_237
*1382 FILLER_0_113_249
*1383 FILLER_0_113_261
*1384 FILLER_0_113_27
*1385 FILLER_0_113_273
*1386 FILLER_0_113_279
*1387 FILLER_0_113_281
*1388 FILLER_0_113_293
*1389 FILLER_0_113_3
*1390 FILLER_0_113_305
*1391 FILLER_0_113_317
*1392 FILLER_0_113_329
*1393 FILLER_0_113_335
*1394 FILLER_0_113_337
*1395 FILLER_0_113_349
*1396 FILLER_0_113_361
*1397 FILLER_0_113_373
*1398 FILLER_0_113_385
*1399 FILLER_0_113_39
*1400 FILLER_0_113_391
*1401 FILLER_0_113_393
*1402 FILLER_0_113_405
*1403 FILLER_0_113_417
*1404 FILLER_0_113_429
*1405 FILLER_0_113_441
*1406 FILLER_0_113_447
*1407 FILLER_0_113_449
*1408 FILLER_0_113_461
*1409 FILLER_0_113_473
*1410 FILLER_0_113_485
*1411 FILLER_0_113_497
*1412 FILLER_0_113_503
*1413 FILLER_0_113_505
*1414 FILLER_0_113_51
*1415 FILLER_0_113_517
*1416 FILLER_0_113_529
*1417 FILLER_0_113_541
*1418 FILLER_0_113_55
*1419 FILLER_0_113_553
*1420 FILLER_0_113_559
*1421 FILLER_0_113_561
*1422 FILLER_0_113_57
*1423 FILLER_0_113_573
*1424 FILLER_0_113_585
*1425 FILLER_0_113_597
*1426 FILLER_0_113_609
*1427 FILLER_0_113_615
*1428 FILLER_0_113_617
*1429 FILLER_0_113_629
*1430 FILLER_0_113_641
*1431 FILLER_0_113_653
*1432 FILLER_0_113_665
*1433 FILLER_0_113_671
*1434 FILLER_0_113_673
*1435 FILLER_0_113_685
*1436 FILLER_0_113_69
*1437 FILLER_0_113_697
*1438 FILLER_0_113_709
*1439 FILLER_0_113_721
*1440 FILLER_0_113_727
*1441 FILLER_0_113_729
*1442 FILLER_0_113_741
*1443 FILLER_0_113_753
*1444 FILLER_0_113_765
*1445 FILLER_0_113_777
*1446 FILLER_0_113_783
*1447 FILLER_0_113_785
*1448 FILLER_0_113_797
*1449 FILLER_0_113_809
*1450 FILLER_0_113_81
*1451 FILLER_0_113_821
*1452 FILLER_0_113_93
*1453 FILLER_0_114_109
*1454 FILLER_0_114_121
*1455 FILLER_0_114_133
*1456 FILLER_0_114_139
*1457 FILLER_0_114_141
*1458 FILLER_0_114_15
*1459 FILLER_0_114_153
*1460 FILLER_0_114_165
*1461 FILLER_0_114_177
*1462 FILLER_0_114_189
*1463 FILLER_0_114_195
*1464 FILLER_0_114_197
*1465 FILLER_0_114_209
*1466 FILLER_0_114_221
*1467 FILLER_0_114_233
*1468 FILLER_0_114_245
*1469 FILLER_0_114_251
*1470 FILLER_0_114_253
*1471 FILLER_0_114_265
*1472 FILLER_0_114_27
*1473 FILLER_0_114_277
*1474 FILLER_0_114_289
*1475 FILLER_0_114_29
*1476 FILLER_0_114_3
*1477 FILLER_0_114_301
*1478 FILLER_0_114_307
*1479 FILLER_0_114_309
*1480 FILLER_0_114_321
*1481 FILLER_0_114_333
*1482 FILLER_0_114_345
*1483 FILLER_0_114_357
*1484 FILLER_0_114_363
*1485 FILLER_0_114_365
*1486 FILLER_0_114_377
*1487 FILLER_0_114_389
*1488 FILLER_0_114_401
*1489 FILLER_0_114_41
*1490 FILLER_0_114_413
*1491 FILLER_0_114_419
*1492 FILLER_0_114_421
*1493 FILLER_0_114_433
*1494 FILLER_0_114_445
*1495 FILLER_0_114_457
*1496 FILLER_0_114_469
*1497 FILLER_0_114_475
*1498 FILLER_0_114_477
*1499 FILLER_0_114_489
*1500 FILLER_0_114_501
*1501 FILLER_0_114_513
*1502 FILLER_0_114_525
*1503 FILLER_0_114_53
*1504 FILLER_0_114_531
*1505 FILLER_0_114_533
*1506 FILLER_0_114_545
*1507 FILLER_0_114_557
*1508 FILLER_0_114_569
*1509 FILLER_0_114_581
*1510 FILLER_0_114_587
*1511 FILLER_0_114_589
*1512 FILLER_0_114_601
*1513 FILLER_0_114_613
*1514 FILLER_0_114_625
*1515 FILLER_0_114_637
*1516 FILLER_0_114_643
*1517 FILLER_0_114_645
*1518 FILLER_0_114_65
*1519 FILLER_0_114_657
*1520 FILLER_0_114_669
*1521 FILLER_0_114_681
*1522 FILLER_0_114_693
*1523 FILLER_0_114_699
*1524 FILLER_0_114_701
*1525 FILLER_0_114_713
*1526 FILLER_0_114_725
*1527 FILLER_0_114_737
*1528 FILLER_0_114_749
*1529 FILLER_0_114_755
*1530 FILLER_0_114_757
*1531 FILLER_0_114_769
*1532 FILLER_0_114_77
*1533 FILLER_0_114_781
*1534 FILLER_0_114_793
*1535 FILLER_0_114_805
*1536 FILLER_0_114_811
*1537 FILLER_0_114_813
*1538 FILLER_0_114_821
*1539 FILLER_0_114_83
*1540 FILLER_0_114_85
*1541 FILLER_0_114_97
*1542 FILLER_0_115_105
*1543 FILLER_0_115_111
*1544 FILLER_0_115_113
*1545 FILLER_0_115_125
*1546 FILLER_0_115_137
*1547 FILLER_0_115_149
*1548 FILLER_0_115_15
*1549 FILLER_0_115_161
*1550 FILLER_0_115_167
*1551 FILLER_0_115_169
*1552 FILLER_0_115_181
*1553 FILLER_0_115_193
*1554 FILLER_0_115_205
*1555 FILLER_0_115_217
*1556 FILLER_0_115_223
*1557 FILLER_0_115_225
*1558 FILLER_0_115_237
*1559 FILLER_0_115_249
*1560 FILLER_0_115_261
*1561 FILLER_0_115_27
*1562 FILLER_0_115_273
*1563 FILLER_0_115_279
*1564 FILLER_0_115_281
*1565 FILLER_0_115_293
*1566 FILLER_0_115_3
*1567 FILLER_0_115_305
*1568 FILLER_0_115_317
*1569 FILLER_0_115_329
*1570 FILLER_0_115_335
*1571 FILLER_0_115_337
*1572 FILLER_0_115_349
*1573 FILLER_0_115_361
*1574 FILLER_0_115_373
*1575 FILLER_0_115_385
*1576 FILLER_0_115_39
*1577 FILLER_0_115_391
*1578 FILLER_0_115_393
*1579 FILLER_0_115_405
*1580 FILLER_0_115_417
*1581 FILLER_0_115_429
*1582 FILLER_0_115_441
*1583 FILLER_0_115_447
*1584 FILLER_0_115_449
*1585 FILLER_0_115_461
*1586 FILLER_0_115_473
*1587 FILLER_0_115_485
*1588 FILLER_0_115_497
*1589 FILLER_0_115_503
*1590 FILLER_0_115_505
*1591 FILLER_0_115_51
*1592 FILLER_0_115_517
*1593 FILLER_0_115_529
*1594 FILLER_0_115_541
*1595 FILLER_0_115_55
*1596 FILLER_0_115_553
*1597 FILLER_0_115_559
*1598 FILLER_0_115_561
*1599 FILLER_0_115_57
*1600 FILLER_0_115_573
*1601 FILLER_0_115_585
*1602 FILLER_0_115_597
*1603 FILLER_0_115_609
*1604 FILLER_0_115_615
*1605 FILLER_0_115_617
*1606 FILLER_0_115_629
*1607 FILLER_0_115_641
*1608 FILLER_0_115_653
*1609 FILLER_0_115_665
*1610 FILLER_0_115_671
*1611 FILLER_0_115_673
*1612 FILLER_0_115_685
*1613 FILLER_0_115_69
*1614 FILLER_0_115_697
*1615 FILLER_0_115_709
*1616 FILLER_0_115_721
*1617 FILLER_0_115_727
*1618 FILLER_0_115_729
*1619 FILLER_0_115_741
*1620 FILLER_0_115_753
*1621 FILLER_0_115_765
*1622 FILLER_0_115_777
*1623 FILLER_0_115_783
*1624 FILLER_0_115_785
*1625 FILLER_0_115_797
*1626 FILLER_0_115_809
*1627 FILLER_0_115_81
*1628 FILLER_0_115_821
*1629 FILLER_0_115_93
*1630 FILLER_0_116_109
*1631 FILLER_0_116_121
*1632 FILLER_0_116_133
*1633 FILLER_0_116_139
*1634 FILLER_0_116_141
*1635 FILLER_0_116_15
*1636 FILLER_0_116_153
*1637 FILLER_0_116_165
*1638 FILLER_0_116_177
*1639 FILLER_0_116_189
*1640 FILLER_0_116_195
*1641 FILLER_0_116_197
*1642 FILLER_0_116_209
*1643 FILLER_0_116_221
*1644 FILLER_0_116_233
*1645 FILLER_0_116_245
*1646 FILLER_0_116_251
*1647 FILLER_0_116_253
*1648 FILLER_0_116_265
*1649 FILLER_0_116_27
*1650 FILLER_0_116_277
*1651 FILLER_0_116_289
*1652 FILLER_0_116_29
*1653 FILLER_0_116_3
*1654 FILLER_0_116_301
*1655 FILLER_0_116_307
*1656 FILLER_0_116_309
*1657 FILLER_0_116_321
*1658 FILLER_0_116_333
*1659 FILLER_0_116_345
*1660 FILLER_0_116_357
*1661 FILLER_0_116_363
*1662 FILLER_0_116_365
*1663 FILLER_0_116_377
*1664 FILLER_0_116_389
*1665 FILLER_0_116_401
*1666 FILLER_0_116_41
*1667 FILLER_0_116_413
*1668 FILLER_0_116_419
*1669 FILLER_0_116_421
*1670 FILLER_0_116_433
*1671 FILLER_0_116_445
*1672 FILLER_0_116_457
*1673 FILLER_0_116_469
*1674 FILLER_0_116_475
*1675 FILLER_0_116_477
*1676 FILLER_0_116_489
*1677 FILLER_0_116_501
*1678 FILLER_0_116_513
*1679 FILLER_0_116_525
*1680 FILLER_0_116_53
*1681 FILLER_0_116_531
*1682 FILLER_0_116_533
*1683 FILLER_0_116_545
*1684 FILLER_0_116_557
*1685 FILLER_0_116_569
*1686 FILLER_0_116_581
*1687 FILLER_0_116_587
*1688 FILLER_0_116_589
*1689 FILLER_0_116_601
*1690 FILLER_0_116_613
*1691 FILLER_0_116_625
*1692 FILLER_0_116_637
*1693 FILLER_0_116_643
*1694 FILLER_0_116_645
*1695 FILLER_0_116_65
*1696 FILLER_0_116_657
*1697 FILLER_0_116_669
*1698 FILLER_0_116_681
*1699 FILLER_0_116_693
*1700 FILLER_0_116_699
*1701 FILLER_0_116_701
*1702 FILLER_0_116_713
*1703 FILLER_0_116_725
*1704 FILLER_0_116_737
*1705 FILLER_0_116_749
*1706 FILLER_0_116_755
*1707 FILLER_0_116_757
*1708 FILLER_0_116_769
*1709 FILLER_0_116_77
*1710 FILLER_0_116_781
*1711 FILLER_0_116_793
*1712 FILLER_0_116_805
*1713 FILLER_0_116_811
*1714 FILLER_0_116_813
*1715 FILLER_0_116_821
*1716 FILLER_0_116_83
*1717 FILLER_0_116_85
*1718 FILLER_0_116_97
*1719 FILLER_0_117_105
*1720 FILLER_0_117_111
*1721 FILLER_0_117_113
*1722 FILLER_0_117_125
*1723 FILLER_0_117_137
*1724 FILLER_0_117_149
*1725 FILLER_0_117_15
*1726 FILLER_0_117_161
*1727 FILLER_0_117_167
*1728 FILLER_0_117_169
*1729 FILLER_0_117_181
*1730 FILLER_0_117_193
*1731 FILLER_0_117_205
*1732 FILLER_0_117_217
*1733 FILLER_0_117_223
*1734 FILLER_0_117_225
*1735 FILLER_0_117_237
*1736 FILLER_0_117_249
*1737 FILLER_0_117_261
*1738 FILLER_0_117_27
*1739 FILLER_0_117_273
*1740 FILLER_0_117_279
*1741 FILLER_0_117_281
*1742 FILLER_0_117_293
*1743 FILLER_0_117_3
*1744 FILLER_0_117_305
*1745 FILLER_0_117_317
*1746 FILLER_0_117_329
*1747 FILLER_0_117_335
*1748 FILLER_0_117_337
*1749 FILLER_0_117_349
*1750 FILLER_0_117_361
*1751 FILLER_0_117_373
*1752 FILLER_0_117_385
*1753 FILLER_0_117_39
*1754 FILLER_0_117_391
*1755 FILLER_0_117_393
*1756 FILLER_0_117_405
*1757 FILLER_0_117_417
*1758 FILLER_0_117_429
*1759 FILLER_0_117_441
*1760 FILLER_0_117_447
*1761 FILLER_0_117_449
*1762 FILLER_0_117_461
*1763 FILLER_0_117_473
*1764 FILLER_0_117_485
*1765 FILLER_0_117_497
*1766 FILLER_0_117_503
*1767 FILLER_0_117_505
*1768 FILLER_0_117_51
*1769 FILLER_0_117_517
*1770 FILLER_0_117_529
*1771 FILLER_0_117_541
*1772 FILLER_0_117_55
*1773 FILLER_0_117_553
*1774 FILLER_0_117_559
*1775 FILLER_0_117_561
*1776 FILLER_0_117_57
*1777 FILLER_0_117_573
*1778 FILLER_0_117_585
*1779 FILLER_0_117_597
*1780 FILLER_0_117_609
*1781 FILLER_0_117_615
*1782 FILLER_0_117_617
*1783 FILLER_0_117_629
*1784 FILLER_0_117_641
*1785 FILLER_0_117_653
*1786 FILLER_0_117_665
*1787 FILLER_0_117_671
*1788 FILLER_0_117_673
*1789 FILLER_0_117_685
*1790 FILLER_0_117_69
*1791 FILLER_0_117_697
*1792 FILLER_0_117_709
*1793 FILLER_0_117_721
*1794 FILLER_0_117_727
*1795 FILLER_0_117_729
*1796 FILLER_0_117_741
*1797 FILLER_0_117_753
*1798 FILLER_0_117_765
*1799 FILLER_0_117_777
*1800 FILLER_0_117_783
*1801 FILLER_0_117_785
*1802 FILLER_0_117_797
*1803 FILLER_0_117_809
*1804 FILLER_0_117_81
*1805 FILLER_0_117_821
*1806 FILLER_0_117_93
*1807 FILLER_0_118_109
*1808 FILLER_0_118_121
*1809 FILLER_0_118_133
*1810 FILLER_0_118_139
*1811 FILLER_0_118_141
*1812 FILLER_0_118_15
*1813 FILLER_0_118_153
*1814 FILLER_0_118_165
*1815 FILLER_0_118_177
*1816 FILLER_0_118_189
*1817 FILLER_0_118_195
*1818 FILLER_0_118_197
*1819 FILLER_0_118_209
*1820 FILLER_0_118_221
*1821 FILLER_0_118_233
*1822 FILLER_0_118_245
*1823 FILLER_0_118_251
*1824 FILLER_0_118_253
*1825 FILLER_0_118_265
*1826 FILLER_0_118_27
*1827 FILLER_0_118_277
*1828 FILLER_0_118_289
*1829 FILLER_0_118_29
*1830 FILLER_0_118_3
*1831 FILLER_0_118_301
*1832 FILLER_0_118_307
*1833 FILLER_0_118_309
*1834 FILLER_0_118_321
*1835 FILLER_0_118_333
*1836 FILLER_0_118_345
*1837 FILLER_0_118_357
*1838 FILLER_0_118_363
*1839 FILLER_0_118_365
*1840 FILLER_0_118_377
*1841 FILLER_0_118_389
*1842 FILLER_0_118_401
*1843 FILLER_0_118_41
*1844 FILLER_0_118_413
*1845 FILLER_0_118_419
*1846 FILLER_0_118_421
*1847 FILLER_0_118_433
*1848 FILLER_0_118_445
*1849 FILLER_0_118_457
*1850 FILLER_0_118_469
*1851 FILLER_0_118_475
*1852 FILLER_0_118_477
*1853 FILLER_0_118_489
*1854 FILLER_0_118_501
*1855 FILLER_0_118_513
*1856 FILLER_0_118_525
*1857 FILLER_0_118_53
*1858 FILLER_0_118_531
*1859 FILLER_0_118_533
*1860 FILLER_0_118_545
*1861 FILLER_0_118_557
*1862 FILLER_0_118_569
*1863 FILLER_0_118_581
*1864 FILLER_0_118_587
*1865 FILLER_0_118_589
*1866 FILLER_0_118_601
*1867 FILLER_0_118_613
*1868 FILLER_0_118_625
*1869 FILLER_0_118_637
*1870 FILLER_0_118_643
*1871 FILLER_0_118_645
*1872 FILLER_0_118_65
*1873 FILLER_0_118_657
*1874 FILLER_0_118_669
*1875 FILLER_0_118_681
*1876 FILLER_0_118_693
*1877 FILLER_0_118_699
*1878 FILLER_0_118_701
*1879 FILLER_0_118_713
*1880 FILLER_0_118_725
*1881 FILLER_0_118_737
*1882 FILLER_0_118_749
*1883 FILLER_0_118_755
*1884 FILLER_0_118_757
*1885 FILLER_0_118_769
*1886 FILLER_0_118_77
*1887 FILLER_0_118_781
*1888 FILLER_0_118_793
*1889 FILLER_0_118_805
*1890 FILLER_0_118_811
*1891 FILLER_0_118_813
*1892 FILLER_0_118_821
*1893 FILLER_0_118_83
*1894 FILLER_0_118_85
*1895 FILLER_0_118_97
*1896 FILLER_0_119_105
*1897 FILLER_0_119_111
*1898 FILLER_0_119_113
*1899 FILLER_0_119_125
*1900 FILLER_0_119_137
*1901 FILLER_0_119_149
*1902 FILLER_0_119_15
*1903 FILLER_0_119_161
*1904 FILLER_0_119_167
*1905 FILLER_0_119_169
*1906 FILLER_0_119_181
*1907 FILLER_0_119_193
*1908 FILLER_0_119_205
*1909 FILLER_0_119_217
*1910 FILLER_0_119_223
*1911 FILLER_0_119_225
*1912 FILLER_0_119_237
*1913 FILLER_0_119_249
*1914 FILLER_0_119_261
*1915 FILLER_0_119_27
*1916 FILLER_0_119_273
*1917 FILLER_0_119_279
*1918 FILLER_0_119_281
*1919 FILLER_0_119_293
*1920 FILLER_0_119_3
*1921 FILLER_0_119_305
*1922 FILLER_0_119_317
*1923 FILLER_0_119_329
*1924 FILLER_0_119_335
*1925 FILLER_0_119_337
*1926 FILLER_0_119_349
*1927 FILLER_0_119_361
*1928 FILLER_0_119_373
*1929 FILLER_0_119_385
*1930 FILLER_0_119_39
*1931 FILLER_0_119_391
*1932 FILLER_0_119_393
*1933 FILLER_0_119_405
*1934 FILLER_0_119_417
*1935 FILLER_0_119_429
*1936 FILLER_0_119_441
*1937 FILLER_0_119_447
*1938 FILLER_0_119_449
*1939 FILLER_0_119_461
*1940 FILLER_0_119_473
*1941 FILLER_0_119_485
*1942 FILLER_0_119_497
*1943 FILLER_0_119_503
*1944 FILLER_0_119_505
*1945 FILLER_0_119_51
*1946 FILLER_0_119_517
*1947 FILLER_0_119_529
*1948 FILLER_0_119_541
*1949 FILLER_0_119_55
*1950 FILLER_0_119_553
*1951 FILLER_0_119_559
*1952 FILLER_0_119_561
*1953 FILLER_0_119_57
*1954 FILLER_0_119_573
*1955 FILLER_0_119_585
*1956 FILLER_0_119_597
*1957 FILLER_0_119_609
*1958 FILLER_0_119_615
*1959 FILLER_0_119_617
*1960 FILLER_0_119_629
*1961 FILLER_0_119_641
*1962 FILLER_0_119_653
*1963 FILLER_0_119_665
*1964 FILLER_0_119_671
*1965 FILLER_0_119_673
*1966 FILLER_0_119_685
*1967 FILLER_0_119_69
*1968 FILLER_0_119_697
*1969 FILLER_0_119_709
*1970 FILLER_0_119_721
*1971 FILLER_0_119_727
*1972 FILLER_0_119_729
*1973 FILLER_0_119_741
*1974 FILLER_0_119_753
*1975 FILLER_0_119_765
*1976 FILLER_0_119_777
*1977 FILLER_0_119_783
*1978 FILLER_0_119_785
*1979 FILLER_0_119_797
*1980 FILLER_0_119_809
*1981 FILLER_0_119_81
*1982 FILLER_0_119_821
*1983 FILLER_0_119_93
*1984 FILLER_0_11_105
*1985 FILLER_0_11_111
*1986 FILLER_0_11_113
*1987 FILLER_0_11_125
*1988 FILLER_0_11_137
*1989 FILLER_0_11_149
*1990 FILLER_0_11_15
*1991 FILLER_0_11_161
*1992 FILLER_0_11_167
*1993 FILLER_0_11_169
*1994 FILLER_0_11_181
*1995 FILLER_0_11_193
*1996 FILLER_0_11_205
*1997 FILLER_0_11_217
*1998 FILLER_0_11_223
*1999 FILLER_0_11_225
*2000 FILLER_0_11_237
*2001 FILLER_0_11_249
*2002 FILLER_0_11_261
*2003 FILLER_0_11_27
*2004 FILLER_0_11_273
*2005 FILLER_0_11_279
*2006 FILLER_0_11_281
*2007 FILLER_0_11_293
*2008 FILLER_0_11_3
*2009 FILLER_0_11_305
*2010 FILLER_0_11_317
*2011 FILLER_0_11_329
*2012 FILLER_0_11_335
*2013 FILLER_0_11_337
*2014 FILLER_0_11_349
*2015 FILLER_0_11_361
*2016 FILLER_0_11_373
*2017 FILLER_0_11_385
*2018 FILLER_0_11_39
*2019 FILLER_0_11_391
*2020 FILLER_0_11_393
*2021 FILLER_0_11_405
*2022 FILLER_0_11_417
*2023 FILLER_0_11_429
*2024 FILLER_0_11_441
*2025 FILLER_0_11_447
*2026 FILLER_0_11_449
*2027 FILLER_0_11_461
*2028 FILLER_0_11_473
*2029 FILLER_0_11_485
*2030 FILLER_0_11_497
*2031 FILLER_0_11_503
*2032 FILLER_0_11_505
*2033 FILLER_0_11_51
*2034 FILLER_0_11_517
*2035 FILLER_0_11_529
*2036 FILLER_0_11_541
*2037 FILLER_0_11_55
*2038 FILLER_0_11_553
*2039 FILLER_0_11_559
*2040 FILLER_0_11_561
*2041 FILLER_0_11_57
*2042 FILLER_0_11_573
*2043 FILLER_0_11_585
*2044 FILLER_0_11_597
*2045 FILLER_0_11_609
*2046 FILLER_0_11_615
*2047 FILLER_0_11_617
*2048 FILLER_0_11_629
*2049 FILLER_0_11_641
*2050 FILLER_0_11_653
*2051 FILLER_0_11_665
*2052 FILLER_0_11_671
*2053 FILLER_0_11_673
*2054 FILLER_0_11_685
*2055 FILLER_0_11_69
*2056 FILLER_0_11_697
*2057 FILLER_0_11_709
*2058 FILLER_0_11_721
*2059 FILLER_0_11_727
*2060 FILLER_0_11_729
*2061 FILLER_0_11_741
*2062 FILLER_0_11_753
*2063 FILLER_0_11_765
*2064 FILLER_0_11_777
*2065 FILLER_0_11_783
*2066 FILLER_0_11_785
*2067 FILLER_0_11_797
*2068 FILLER_0_11_809
*2069 FILLER_0_11_81
*2070 FILLER_0_11_821
*2071 FILLER_0_11_93
*2072 FILLER_0_120_109
*2073 FILLER_0_120_121
*2074 FILLER_0_120_133
*2075 FILLER_0_120_139
*2076 FILLER_0_120_141
*2077 FILLER_0_120_15
*2078 FILLER_0_120_153
*2079 FILLER_0_120_165
*2080 FILLER_0_120_177
*2081 FILLER_0_120_189
*2082 FILLER_0_120_195
*2083 FILLER_0_120_197
*2084 FILLER_0_120_209
*2085 FILLER_0_120_221
*2086 FILLER_0_120_233
*2087 FILLER_0_120_245
*2088 FILLER_0_120_251
*2089 FILLER_0_120_253
*2090 FILLER_0_120_265
*2091 FILLER_0_120_27
*2092 FILLER_0_120_277
*2093 FILLER_0_120_289
*2094 FILLER_0_120_29
*2095 FILLER_0_120_3
*2096 FILLER_0_120_301
*2097 FILLER_0_120_307
*2098 FILLER_0_120_309
*2099 FILLER_0_120_321
*2100 FILLER_0_120_333
*2101 FILLER_0_120_345
*2102 FILLER_0_120_357
*2103 FILLER_0_120_363
*2104 FILLER_0_120_365
*2105 FILLER_0_120_377
*2106 FILLER_0_120_389
*2107 FILLER_0_120_401
*2108 FILLER_0_120_41
*2109 FILLER_0_120_413
*2110 FILLER_0_120_419
*2111 FILLER_0_120_421
*2112 FILLER_0_120_433
*2113 FILLER_0_120_445
*2114 FILLER_0_120_457
*2115 FILLER_0_120_469
*2116 FILLER_0_120_475
*2117 FILLER_0_120_477
*2118 FILLER_0_120_489
*2119 FILLER_0_120_501
*2120 FILLER_0_120_513
*2121 FILLER_0_120_525
*2122 FILLER_0_120_53
*2123 FILLER_0_120_531
*2124 FILLER_0_120_533
*2125 FILLER_0_120_545
*2126 FILLER_0_120_557
*2127 FILLER_0_120_569
*2128 FILLER_0_120_581
*2129 FILLER_0_120_587
*2130 FILLER_0_120_589
*2131 FILLER_0_120_601
*2132 FILLER_0_120_613
*2133 FILLER_0_120_625
*2134 FILLER_0_120_637
*2135 FILLER_0_120_643
*2136 FILLER_0_120_645
*2137 FILLER_0_120_65
*2138 FILLER_0_120_657
*2139 FILLER_0_120_669
*2140 FILLER_0_120_681
*2141 FILLER_0_120_693
*2142 FILLER_0_120_699
*2143 FILLER_0_120_701
*2144 FILLER_0_120_713
*2145 FILLER_0_120_725
*2146 FILLER_0_120_737
*2147 FILLER_0_120_749
*2148 FILLER_0_120_755
*2149 FILLER_0_120_757
*2150 FILLER_0_120_769
*2151 FILLER_0_120_77
*2152 FILLER_0_120_781
*2153 FILLER_0_120_793
*2154 FILLER_0_120_805
*2155 FILLER_0_120_811
*2156 FILLER_0_120_813
*2157 FILLER_0_120_821
*2158 FILLER_0_120_83
*2159 FILLER_0_120_85
*2160 FILLER_0_120_97
*2161 FILLER_0_121_105
*2162 FILLER_0_121_111
*2163 FILLER_0_121_113
*2164 FILLER_0_121_125
*2165 FILLER_0_121_137
*2166 FILLER_0_121_149
*2167 FILLER_0_121_161
*2168 FILLER_0_121_167
*2169 FILLER_0_121_169
*2170 FILLER_0_121_18
*2171 FILLER_0_121_181
*2172 FILLER_0_121_193
*2173 FILLER_0_121_205
*2174 FILLER_0_121_217
*2175 FILLER_0_121_223
*2176 FILLER_0_121_225
*2177 FILLER_0_121_237
*2178 FILLER_0_121_249
*2179 FILLER_0_121_261
*2180 FILLER_0_121_273
*2181 FILLER_0_121_279
*2182 FILLER_0_121_281
*2183 FILLER_0_121_293
*2184 FILLER_0_121_30
*2185 FILLER_0_121_305
*2186 FILLER_0_121_317
*2187 FILLER_0_121_329
*2188 FILLER_0_121_335
*2189 FILLER_0_121_337
*2190 FILLER_0_121_349
*2191 FILLER_0_121_361
*2192 FILLER_0_121_373
*2193 FILLER_0_121_385
*2194 FILLER_0_121_391
*2195 FILLER_0_121_393
*2196 FILLER_0_121_405
*2197 FILLER_0_121_417
*2198 FILLER_0_121_42
*2199 FILLER_0_121_429
*2200 FILLER_0_121_441
*2201 FILLER_0_121_447
*2202 FILLER_0_121_449
*2203 FILLER_0_121_461
*2204 FILLER_0_121_473
*2205 FILLER_0_121_485
*2206 FILLER_0_121_497
*2207 FILLER_0_121_503
*2208 FILLER_0_121_505
*2209 FILLER_0_121_517
*2210 FILLER_0_121_529
*2211 FILLER_0_121_54
*2212 FILLER_0_121_541
*2213 FILLER_0_121_553
*2214 FILLER_0_121_559
*2215 FILLER_0_121_561
*2216 FILLER_0_121_57
*2217 FILLER_0_121_573
*2218 FILLER_0_121_585
*2219 FILLER_0_121_597
*2220 FILLER_0_121_6
*2221 FILLER_0_121_609
*2222 FILLER_0_121_615
*2223 FILLER_0_121_617
*2224 FILLER_0_121_629
*2225 FILLER_0_121_641
*2226 FILLER_0_121_653
*2227 FILLER_0_121_665
*2228 FILLER_0_121_671
*2229 FILLER_0_121_673
*2230 FILLER_0_121_685
*2231 FILLER_0_121_69
*2232 FILLER_0_121_697
*2233 FILLER_0_121_709
*2234 FILLER_0_121_721
*2235 FILLER_0_121_727
*2236 FILLER_0_121_729
*2237 FILLER_0_121_741
*2238 FILLER_0_121_753
*2239 FILLER_0_121_765
*2240 FILLER_0_121_777
*2241 FILLER_0_121_783
*2242 FILLER_0_121_785
*2243 FILLER_0_121_797
*2244 FILLER_0_121_809
*2245 FILLER_0_121_81
*2246 FILLER_0_121_821
*2247 FILLER_0_121_93
*2248 FILLER_0_122_109
*2249 FILLER_0_122_121
*2250 FILLER_0_122_133
*2251 FILLER_0_122_139
*2252 FILLER_0_122_141
*2253 FILLER_0_122_15
*2254 FILLER_0_122_153
*2255 FILLER_0_122_165
*2256 FILLER_0_122_177
*2257 FILLER_0_122_189
*2258 FILLER_0_122_195
*2259 FILLER_0_122_197
*2260 FILLER_0_122_209
*2261 FILLER_0_122_221
*2262 FILLER_0_122_233
*2263 FILLER_0_122_245
*2264 FILLER_0_122_251
*2265 FILLER_0_122_253
*2266 FILLER_0_122_265
*2267 FILLER_0_122_27
*2268 FILLER_0_122_277
*2269 FILLER_0_122_289
*2270 FILLER_0_122_29
*2271 FILLER_0_122_3
*2272 FILLER_0_122_301
*2273 FILLER_0_122_307
*2274 FILLER_0_122_309
*2275 FILLER_0_122_321
*2276 FILLER_0_122_333
*2277 FILLER_0_122_345
*2278 FILLER_0_122_357
*2279 FILLER_0_122_363
*2280 FILLER_0_122_365
*2281 FILLER_0_122_377
*2282 FILLER_0_122_389
*2283 FILLER_0_122_401
*2284 FILLER_0_122_41
*2285 FILLER_0_122_413
*2286 FILLER_0_122_419
*2287 FILLER_0_122_421
*2288 FILLER_0_122_433
*2289 FILLER_0_122_445
*2290 FILLER_0_122_457
*2291 FILLER_0_122_469
*2292 FILLER_0_122_475
*2293 FILLER_0_122_477
*2294 FILLER_0_122_489
*2295 FILLER_0_122_501
*2296 FILLER_0_122_513
*2297 FILLER_0_122_525
*2298 FILLER_0_122_53
*2299 FILLER_0_122_531
*2300 FILLER_0_122_533
*2301 FILLER_0_122_545
*2302 FILLER_0_122_557
*2303 FILLER_0_122_569
*2304 FILLER_0_122_581
*2305 FILLER_0_122_587
*2306 FILLER_0_122_589
*2307 FILLER_0_122_601
*2308 FILLER_0_122_613
*2309 FILLER_0_122_625
*2310 FILLER_0_122_637
*2311 FILLER_0_122_643
*2312 FILLER_0_122_645
*2313 FILLER_0_122_65
*2314 FILLER_0_122_657
*2315 FILLER_0_122_669
*2316 FILLER_0_122_681
*2317 FILLER_0_122_693
*2318 FILLER_0_122_699
*2319 FILLER_0_122_701
*2320 FILLER_0_122_713
*2321 FILLER_0_122_725
*2322 FILLER_0_122_737
*2323 FILLER_0_122_749
*2324 FILLER_0_122_755
*2325 FILLER_0_122_757
*2326 FILLER_0_122_769
*2327 FILLER_0_122_77
*2328 FILLER_0_122_781
*2329 FILLER_0_122_793
*2330 FILLER_0_122_805
*2331 FILLER_0_122_811
*2332 FILLER_0_122_813
*2333 FILLER_0_122_821
*2334 FILLER_0_122_83
*2335 FILLER_0_122_85
*2336 FILLER_0_122_97
*2337 FILLER_0_123_105
*2338 FILLER_0_123_111
*2339 FILLER_0_123_113
*2340 FILLER_0_123_125
*2341 FILLER_0_123_137
*2342 FILLER_0_123_149
*2343 FILLER_0_123_15
*2344 FILLER_0_123_161
*2345 FILLER_0_123_167
*2346 FILLER_0_123_169
*2347 FILLER_0_123_181
*2348 FILLER_0_123_193
*2349 FILLER_0_123_205
*2350 FILLER_0_123_217
*2351 FILLER_0_123_223
*2352 FILLER_0_123_225
*2353 FILLER_0_123_237
*2354 FILLER_0_123_249
*2355 FILLER_0_123_261
*2356 FILLER_0_123_27
*2357 FILLER_0_123_273
*2358 FILLER_0_123_279
*2359 FILLER_0_123_281
*2360 FILLER_0_123_293
*2361 FILLER_0_123_3
*2362 FILLER_0_123_305
*2363 FILLER_0_123_317
*2364 FILLER_0_123_329
*2365 FILLER_0_123_335
*2366 FILLER_0_123_337
*2367 FILLER_0_123_349
*2368 FILLER_0_123_361
*2369 FILLER_0_123_373
*2370 FILLER_0_123_385
*2371 FILLER_0_123_39
*2372 FILLER_0_123_391
*2373 FILLER_0_123_393
*2374 FILLER_0_123_405
*2375 FILLER_0_123_417
*2376 FILLER_0_123_429
*2377 FILLER_0_123_441
*2378 FILLER_0_123_447
*2379 FILLER_0_123_449
*2380 FILLER_0_123_461
*2381 FILLER_0_123_473
*2382 FILLER_0_123_485
*2383 FILLER_0_123_497
*2384 FILLER_0_123_503
*2385 FILLER_0_123_505
*2386 FILLER_0_123_51
*2387 FILLER_0_123_517
*2388 FILLER_0_123_529
*2389 FILLER_0_123_541
*2390 FILLER_0_123_55
*2391 FILLER_0_123_553
*2392 FILLER_0_123_559
*2393 FILLER_0_123_561
*2394 FILLER_0_123_57
*2395 FILLER_0_123_573
*2396 FILLER_0_123_585
*2397 FILLER_0_123_597
*2398 FILLER_0_123_609
*2399 FILLER_0_123_615
*2400 FILLER_0_123_617
*2401 FILLER_0_123_629
*2402 FILLER_0_123_641
*2403 FILLER_0_123_653
*2404 FILLER_0_123_665
*2405 FILLER_0_123_671
*2406 FILLER_0_123_673
*2407 FILLER_0_123_685
*2408 FILLER_0_123_69
*2409 FILLER_0_123_697
*2410 FILLER_0_123_709
*2411 FILLER_0_123_721
*2412 FILLER_0_123_727
*2413 FILLER_0_123_729
*2414 FILLER_0_123_741
*2415 FILLER_0_123_753
*2416 FILLER_0_123_765
*2417 FILLER_0_123_777
*2418 FILLER_0_123_783
*2419 FILLER_0_123_785
*2420 FILLER_0_123_797
*2421 FILLER_0_123_809
*2422 FILLER_0_123_81
*2423 FILLER_0_123_821
*2424 FILLER_0_123_93
*2425 FILLER_0_124_109
*2426 FILLER_0_124_121
*2427 FILLER_0_124_133
*2428 FILLER_0_124_139
*2429 FILLER_0_124_141
*2430 FILLER_0_124_15
*2431 FILLER_0_124_153
*2432 FILLER_0_124_165
*2433 FILLER_0_124_177
*2434 FILLER_0_124_189
*2435 FILLER_0_124_195
*2436 FILLER_0_124_197
*2437 FILLER_0_124_209
*2438 FILLER_0_124_221
*2439 FILLER_0_124_233
*2440 FILLER_0_124_245
*2441 FILLER_0_124_251
*2442 FILLER_0_124_253
*2443 FILLER_0_124_265
*2444 FILLER_0_124_27
*2445 FILLER_0_124_277
*2446 FILLER_0_124_289
*2447 FILLER_0_124_29
*2448 FILLER_0_124_3
*2449 FILLER_0_124_301
*2450 FILLER_0_124_307
*2451 FILLER_0_124_309
*2452 FILLER_0_124_321
*2453 FILLER_0_124_333
*2454 FILLER_0_124_345
*2455 FILLER_0_124_357
*2456 FILLER_0_124_363
*2457 FILLER_0_124_365
*2458 FILLER_0_124_377
*2459 FILLER_0_124_389
*2460 FILLER_0_124_401
*2461 FILLER_0_124_41
*2462 FILLER_0_124_413
*2463 FILLER_0_124_419
*2464 FILLER_0_124_421
*2465 FILLER_0_124_433
*2466 FILLER_0_124_445
*2467 FILLER_0_124_457
*2468 FILLER_0_124_469
*2469 FILLER_0_124_475
*2470 FILLER_0_124_477
*2471 FILLER_0_124_489
*2472 FILLER_0_124_501
*2473 FILLER_0_124_513
*2474 FILLER_0_124_525
*2475 FILLER_0_124_53
*2476 FILLER_0_124_531
*2477 FILLER_0_124_533
*2478 FILLER_0_124_545
*2479 FILLER_0_124_557
*2480 FILLER_0_124_569
*2481 FILLER_0_124_581
*2482 FILLER_0_124_587
*2483 FILLER_0_124_589
*2484 FILLER_0_124_601
*2485 FILLER_0_124_613
*2486 FILLER_0_124_625
*2487 FILLER_0_124_637
*2488 FILLER_0_124_643
*2489 FILLER_0_124_645
*2490 FILLER_0_124_65
*2491 FILLER_0_124_657
*2492 FILLER_0_124_669
*2493 FILLER_0_124_681
*2494 FILLER_0_124_693
*2495 FILLER_0_124_699
*2496 FILLER_0_124_701
*2497 FILLER_0_124_713
*2498 FILLER_0_124_725
*2499 FILLER_0_124_737
*2500 FILLER_0_124_749
*2501 FILLER_0_124_755
*2502 FILLER_0_124_757
*2503 FILLER_0_124_769
*2504 FILLER_0_124_77
*2505 FILLER_0_124_781
*2506 FILLER_0_124_793
*2507 FILLER_0_124_805
*2508 FILLER_0_124_811
*2509 FILLER_0_124_813
*2510 FILLER_0_124_821
*2511 FILLER_0_124_83
*2512 FILLER_0_124_85
*2513 FILLER_0_124_97
*2514 FILLER_0_125_105
*2515 FILLER_0_125_111
*2516 FILLER_0_125_113
*2517 FILLER_0_125_125
*2518 FILLER_0_125_137
*2519 FILLER_0_125_149
*2520 FILLER_0_125_15
*2521 FILLER_0_125_161
*2522 FILLER_0_125_167
*2523 FILLER_0_125_169
*2524 FILLER_0_125_181
*2525 FILLER_0_125_193
*2526 FILLER_0_125_205
*2527 FILLER_0_125_217
*2528 FILLER_0_125_223
*2529 FILLER_0_125_225
*2530 FILLER_0_125_237
*2531 FILLER_0_125_249
*2532 FILLER_0_125_261
*2533 FILLER_0_125_27
*2534 FILLER_0_125_273
*2535 FILLER_0_125_279
*2536 FILLER_0_125_281
*2537 FILLER_0_125_293
*2538 FILLER_0_125_3
*2539 FILLER_0_125_305
*2540 FILLER_0_125_317
*2541 FILLER_0_125_329
*2542 FILLER_0_125_335
*2543 FILLER_0_125_337
*2544 FILLER_0_125_349
*2545 FILLER_0_125_361
*2546 FILLER_0_125_373
*2547 FILLER_0_125_385
*2548 FILLER_0_125_39
*2549 FILLER_0_125_391
*2550 FILLER_0_125_393
*2551 FILLER_0_125_405
*2552 FILLER_0_125_417
*2553 FILLER_0_125_429
*2554 FILLER_0_125_441
*2555 FILLER_0_125_447
*2556 FILLER_0_125_449
*2557 FILLER_0_125_461
*2558 FILLER_0_125_473
*2559 FILLER_0_125_485
*2560 FILLER_0_125_497
*2561 FILLER_0_125_503
*2562 FILLER_0_125_505
*2563 FILLER_0_125_51
*2564 FILLER_0_125_517
*2565 FILLER_0_125_529
*2566 FILLER_0_125_541
*2567 FILLER_0_125_55
*2568 FILLER_0_125_553
*2569 FILLER_0_125_559
*2570 FILLER_0_125_561
*2571 FILLER_0_125_57
*2572 FILLER_0_125_573
*2573 FILLER_0_125_585
*2574 FILLER_0_125_597
*2575 FILLER_0_125_609
*2576 FILLER_0_125_615
*2577 FILLER_0_125_617
*2578 FILLER_0_125_629
*2579 FILLER_0_125_641
*2580 FILLER_0_125_653
*2581 FILLER_0_125_665
*2582 FILLER_0_125_671
*2583 FILLER_0_125_673
*2584 FILLER_0_125_685
*2585 FILLER_0_125_69
*2586 FILLER_0_125_697
*2587 FILLER_0_125_709
*2588 FILLER_0_125_721
*2589 FILLER_0_125_727
*2590 FILLER_0_125_729
*2591 FILLER_0_125_741
*2592 FILLER_0_125_753
*2593 FILLER_0_125_765
*2594 FILLER_0_125_777
*2595 FILLER_0_125_783
*2596 FILLER_0_125_785
*2597 FILLER_0_125_797
*2598 FILLER_0_125_809
*2599 FILLER_0_125_81
*2600 FILLER_0_125_821
*2601 FILLER_0_125_93
*2602 FILLER_0_126_109
*2603 FILLER_0_126_121
*2604 FILLER_0_126_133
*2605 FILLER_0_126_139
*2606 FILLER_0_126_141
*2607 FILLER_0_126_15
*2608 FILLER_0_126_153
*2609 FILLER_0_126_165
*2610 FILLER_0_126_177
*2611 FILLER_0_126_189
*2612 FILLER_0_126_195
*2613 FILLER_0_126_197
*2614 FILLER_0_126_209
*2615 FILLER_0_126_221
*2616 FILLER_0_126_233
*2617 FILLER_0_126_245
*2618 FILLER_0_126_251
*2619 FILLER_0_126_253
*2620 FILLER_0_126_265
*2621 FILLER_0_126_27
*2622 FILLER_0_126_277
*2623 FILLER_0_126_289
*2624 FILLER_0_126_29
*2625 FILLER_0_126_3
*2626 FILLER_0_126_301
*2627 FILLER_0_126_307
*2628 FILLER_0_126_309
*2629 FILLER_0_126_321
*2630 FILLER_0_126_333
*2631 FILLER_0_126_345
*2632 FILLER_0_126_357
*2633 FILLER_0_126_363
*2634 FILLER_0_126_365
*2635 FILLER_0_126_377
*2636 FILLER_0_126_389
*2637 FILLER_0_126_401
*2638 FILLER_0_126_41
*2639 FILLER_0_126_413
*2640 FILLER_0_126_419
*2641 FILLER_0_126_421
*2642 FILLER_0_126_433
*2643 FILLER_0_126_445
*2644 FILLER_0_126_457
*2645 FILLER_0_126_469
*2646 FILLER_0_126_475
*2647 FILLER_0_126_477
*2648 FILLER_0_126_489
*2649 FILLER_0_126_501
*2650 FILLER_0_126_513
*2651 FILLER_0_126_525
*2652 FILLER_0_126_53
*2653 FILLER_0_126_531
*2654 FILLER_0_126_533
*2655 FILLER_0_126_545
*2656 FILLER_0_126_557
*2657 FILLER_0_126_569
*2658 FILLER_0_126_581
*2659 FILLER_0_126_587
*2660 FILLER_0_126_589
*2661 FILLER_0_126_601
*2662 FILLER_0_126_613
*2663 FILLER_0_126_625
*2664 FILLER_0_126_637
*2665 FILLER_0_126_643
*2666 FILLER_0_126_645
*2667 FILLER_0_126_65
*2668 FILLER_0_126_657
*2669 FILLER_0_126_669
*2670 FILLER_0_126_681
*2671 FILLER_0_126_693
*2672 FILLER_0_126_699
*2673 FILLER_0_126_701
*2674 FILLER_0_126_713
*2675 FILLER_0_126_725
*2676 FILLER_0_126_737
*2677 FILLER_0_126_749
*2678 FILLER_0_126_755
*2679 FILLER_0_126_757
*2680 FILLER_0_126_769
*2681 FILLER_0_126_77
*2682 FILLER_0_126_781
*2683 FILLER_0_126_793
*2684 FILLER_0_126_805
*2685 FILLER_0_126_811
*2686 FILLER_0_126_813
*2687 FILLER_0_126_821
*2688 FILLER_0_126_83
*2689 FILLER_0_126_85
*2690 FILLER_0_126_97
*2691 FILLER_0_127_105
*2692 FILLER_0_127_111
*2693 FILLER_0_127_113
*2694 FILLER_0_127_125
*2695 FILLER_0_127_137
*2696 FILLER_0_127_149
*2697 FILLER_0_127_15
*2698 FILLER_0_127_161
*2699 FILLER_0_127_167
*2700 FILLER_0_127_169
*2701 FILLER_0_127_181
*2702 FILLER_0_127_193
*2703 FILLER_0_127_205
*2704 FILLER_0_127_217
*2705 FILLER_0_127_223
*2706 FILLER_0_127_225
*2707 FILLER_0_127_237
*2708 FILLER_0_127_249
*2709 FILLER_0_127_261
*2710 FILLER_0_127_27
*2711 FILLER_0_127_273
*2712 FILLER_0_127_279
*2713 FILLER_0_127_281
*2714 FILLER_0_127_293
*2715 FILLER_0_127_3
*2716 FILLER_0_127_305
*2717 FILLER_0_127_317
*2718 FILLER_0_127_329
*2719 FILLER_0_127_335
*2720 FILLER_0_127_337
*2721 FILLER_0_127_349
*2722 FILLER_0_127_361
*2723 FILLER_0_127_373
*2724 FILLER_0_127_385
*2725 FILLER_0_127_39
*2726 FILLER_0_127_391
*2727 FILLER_0_127_393
*2728 FILLER_0_127_405
*2729 FILLER_0_127_417
*2730 FILLER_0_127_429
*2731 FILLER_0_127_441
*2732 FILLER_0_127_447
*2733 FILLER_0_127_449
*2734 FILLER_0_127_461
*2735 FILLER_0_127_473
*2736 FILLER_0_127_485
*2737 FILLER_0_127_497
*2738 FILLER_0_127_503
*2739 FILLER_0_127_505
*2740 FILLER_0_127_51
*2741 FILLER_0_127_517
*2742 FILLER_0_127_529
*2743 FILLER_0_127_541
*2744 FILLER_0_127_55
*2745 FILLER_0_127_553
*2746 FILLER_0_127_559
*2747 FILLER_0_127_561
*2748 FILLER_0_127_57
*2749 FILLER_0_127_573
*2750 FILLER_0_127_585
*2751 FILLER_0_127_597
*2752 FILLER_0_127_609
*2753 FILLER_0_127_615
*2754 FILLER_0_127_617
*2755 FILLER_0_127_629
*2756 FILLER_0_127_641
*2757 FILLER_0_127_653
*2758 FILLER_0_127_665
*2759 FILLER_0_127_671
*2760 FILLER_0_127_673
*2761 FILLER_0_127_685
*2762 FILLER_0_127_69
*2763 FILLER_0_127_697
*2764 FILLER_0_127_709
*2765 FILLER_0_127_721
*2766 FILLER_0_127_727
*2767 FILLER_0_127_729
*2768 FILLER_0_127_741
*2769 FILLER_0_127_753
*2770 FILLER_0_127_765
*2771 FILLER_0_127_777
*2772 FILLER_0_127_783
*2773 FILLER_0_127_785
*2774 FILLER_0_127_797
*2775 FILLER_0_127_809
*2776 FILLER_0_127_81
*2777 FILLER_0_127_821
*2778 FILLER_0_127_93
*2779 FILLER_0_128_109
*2780 FILLER_0_128_121
*2781 FILLER_0_128_133
*2782 FILLER_0_128_139
*2783 FILLER_0_128_141
*2784 FILLER_0_128_15
*2785 FILLER_0_128_153
*2786 FILLER_0_128_165
*2787 FILLER_0_128_177
*2788 FILLER_0_128_189
*2789 FILLER_0_128_195
*2790 FILLER_0_128_197
*2791 FILLER_0_128_209
*2792 FILLER_0_128_221
*2793 FILLER_0_128_233
*2794 FILLER_0_128_245
*2795 FILLER_0_128_251
*2796 FILLER_0_128_253
*2797 FILLER_0_128_265
*2798 FILLER_0_128_27
*2799 FILLER_0_128_277
*2800 FILLER_0_128_289
*2801 FILLER_0_128_29
*2802 FILLER_0_128_3
*2803 FILLER_0_128_301
*2804 FILLER_0_128_307
*2805 FILLER_0_128_309
*2806 FILLER_0_128_321
*2807 FILLER_0_128_333
*2808 FILLER_0_128_345
*2809 FILLER_0_128_357
*2810 FILLER_0_128_363
*2811 FILLER_0_128_365
*2812 FILLER_0_128_377
*2813 FILLER_0_128_389
*2814 FILLER_0_128_401
*2815 FILLER_0_128_41
*2816 FILLER_0_128_413
*2817 FILLER_0_128_419
*2818 FILLER_0_128_421
*2819 FILLER_0_128_433
*2820 FILLER_0_128_445
*2821 FILLER_0_128_457
*2822 FILLER_0_128_469
*2823 FILLER_0_128_475
*2824 FILLER_0_128_477
*2825 FILLER_0_128_489
*2826 FILLER_0_128_501
*2827 FILLER_0_128_513
*2828 FILLER_0_128_525
*2829 FILLER_0_128_53
*2830 FILLER_0_128_531
*2831 FILLER_0_128_533
*2832 FILLER_0_128_545
*2833 FILLER_0_128_557
*2834 FILLER_0_128_569
*2835 FILLER_0_128_581
*2836 FILLER_0_128_587
*2837 FILLER_0_128_589
*2838 FILLER_0_128_601
*2839 FILLER_0_128_613
*2840 FILLER_0_128_625
*2841 FILLER_0_128_637
*2842 FILLER_0_128_643
*2843 FILLER_0_128_645
*2844 FILLER_0_128_65
*2845 FILLER_0_128_657
*2846 FILLER_0_128_669
*2847 FILLER_0_128_681
*2848 FILLER_0_128_693
*2849 FILLER_0_128_699
*2850 FILLER_0_128_701
*2851 FILLER_0_128_713
*2852 FILLER_0_128_725
*2853 FILLER_0_128_737
*2854 FILLER_0_128_749
*2855 FILLER_0_128_755
*2856 FILLER_0_128_757
*2857 FILLER_0_128_769
*2858 FILLER_0_128_77
*2859 FILLER_0_128_781
*2860 FILLER_0_128_793
*2861 FILLER_0_128_805
*2862 FILLER_0_128_811
*2863 FILLER_0_128_813
*2864 FILLER_0_128_821
*2865 FILLER_0_128_83
*2866 FILLER_0_128_85
*2867 FILLER_0_128_97
*2868 FILLER_0_129_105
*2869 FILLER_0_129_111
*2870 FILLER_0_129_113
*2871 FILLER_0_129_125
*2872 FILLER_0_129_137
*2873 FILLER_0_129_149
*2874 FILLER_0_129_15
*2875 FILLER_0_129_161
*2876 FILLER_0_129_167
*2877 FILLER_0_129_169
*2878 FILLER_0_129_181
*2879 FILLER_0_129_193
*2880 FILLER_0_129_205
*2881 FILLER_0_129_217
*2882 FILLER_0_129_223
*2883 FILLER_0_129_225
*2884 FILLER_0_129_237
*2885 FILLER_0_129_249
*2886 FILLER_0_129_261
*2887 FILLER_0_129_27
*2888 FILLER_0_129_273
*2889 FILLER_0_129_279
*2890 FILLER_0_129_281
*2891 FILLER_0_129_293
*2892 FILLER_0_129_3
*2893 FILLER_0_129_305
*2894 FILLER_0_129_317
*2895 FILLER_0_129_329
*2896 FILLER_0_129_335
*2897 FILLER_0_129_337
*2898 FILLER_0_129_349
*2899 FILLER_0_129_361
*2900 FILLER_0_129_373
*2901 FILLER_0_129_385
*2902 FILLER_0_129_39
*2903 FILLER_0_129_391
*2904 FILLER_0_129_393
*2905 FILLER_0_129_405
*2906 FILLER_0_129_417
*2907 FILLER_0_129_429
*2908 FILLER_0_129_441
*2909 FILLER_0_129_447
*2910 FILLER_0_129_449
*2911 FILLER_0_129_461
*2912 FILLER_0_129_473
*2913 FILLER_0_129_485
*2914 FILLER_0_129_497
*2915 FILLER_0_129_503
*2916 FILLER_0_129_505
*2917 FILLER_0_129_51
*2918 FILLER_0_129_517
*2919 FILLER_0_129_529
*2920 FILLER_0_129_541
*2921 FILLER_0_129_55
*2922 FILLER_0_129_553
*2923 FILLER_0_129_559
*2924 FILLER_0_129_561
*2925 FILLER_0_129_57
*2926 FILLER_0_129_573
*2927 FILLER_0_129_585
*2928 FILLER_0_129_597
*2929 FILLER_0_129_609
*2930 FILLER_0_129_615
*2931 FILLER_0_129_617
*2932 FILLER_0_129_629
*2933 FILLER_0_129_641
*2934 FILLER_0_129_653
*2935 FILLER_0_129_665
*2936 FILLER_0_129_671
*2937 FILLER_0_129_673
*2938 FILLER_0_129_685
*2939 FILLER_0_129_69
*2940 FILLER_0_129_697
*2941 FILLER_0_129_709
*2942 FILLER_0_129_721
*2943 FILLER_0_129_727
*2944 FILLER_0_129_729
*2945 FILLER_0_129_741
*2946 FILLER_0_129_753
*2947 FILLER_0_129_765
*2948 FILLER_0_129_777
*2949 FILLER_0_129_783
*2950 FILLER_0_129_785
*2951 FILLER_0_129_797
*2952 FILLER_0_129_809
*2953 FILLER_0_129_81
*2954 FILLER_0_129_821
*2955 FILLER_0_129_93
*2956 FILLER_0_12_109
*2957 FILLER_0_12_121
*2958 FILLER_0_12_133
*2959 FILLER_0_12_139
*2960 FILLER_0_12_141
*2961 FILLER_0_12_15
*2962 FILLER_0_12_153
*2963 FILLER_0_12_165
*2964 FILLER_0_12_177
*2965 FILLER_0_12_189
*2966 FILLER_0_12_195
*2967 FILLER_0_12_197
*2968 FILLER_0_12_209
*2969 FILLER_0_12_221
*2970 FILLER_0_12_233
*2971 FILLER_0_12_245
*2972 FILLER_0_12_251
*2973 FILLER_0_12_253
*2974 FILLER_0_12_265
*2975 FILLER_0_12_27
*2976 FILLER_0_12_277
*2977 FILLER_0_12_289
*2978 FILLER_0_12_29
*2979 FILLER_0_12_3
*2980 FILLER_0_12_301
*2981 FILLER_0_12_307
*2982 FILLER_0_12_309
*2983 FILLER_0_12_321
*2984 FILLER_0_12_333
*2985 FILLER_0_12_345
*2986 FILLER_0_12_357
*2987 FILLER_0_12_363
*2988 FILLER_0_12_365
*2989 FILLER_0_12_377
*2990 FILLER_0_12_389
*2991 FILLER_0_12_401
*2992 FILLER_0_12_41
*2993 FILLER_0_12_413
*2994 FILLER_0_12_419
*2995 FILLER_0_12_421
*2996 FILLER_0_12_433
*2997 FILLER_0_12_445
*2998 FILLER_0_12_457
*2999 FILLER_0_12_469
*3000 FILLER_0_12_475
*3001 FILLER_0_12_477
*3002 FILLER_0_12_489
*3003 FILLER_0_12_501
*3004 FILLER_0_12_513
*3005 FILLER_0_12_525
*3006 FILLER_0_12_53
*3007 FILLER_0_12_531
*3008 FILLER_0_12_533
*3009 FILLER_0_12_545
*3010 FILLER_0_12_557
*3011 FILLER_0_12_569
*3012 FILLER_0_12_581
*3013 FILLER_0_12_587
*3014 FILLER_0_12_589
*3015 FILLER_0_12_601
*3016 FILLER_0_12_613
*3017 FILLER_0_12_625
*3018 FILLER_0_12_637
*3019 FILLER_0_12_643
*3020 FILLER_0_12_645
*3021 FILLER_0_12_65
*3022 FILLER_0_12_657
*3023 FILLER_0_12_669
*3024 FILLER_0_12_681
*3025 FILLER_0_12_693
*3026 FILLER_0_12_699
*3027 FILLER_0_12_701
*3028 FILLER_0_12_713
*3029 FILLER_0_12_725
*3030 FILLER_0_12_737
*3031 FILLER_0_12_749
*3032 FILLER_0_12_755
*3033 FILLER_0_12_757
*3034 FILLER_0_12_769
*3035 FILLER_0_12_77
*3036 FILLER_0_12_781
*3037 FILLER_0_12_793
*3038 FILLER_0_12_805
*3039 FILLER_0_12_811
*3040 FILLER_0_12_813
*3041 FILLER_0_12_821
*3042 FILLER_0_12_83
*3043 FILLER_0_12_85
*3044 FILLER_0_12_97
*3045 FILLER_0_130_109
*3046 FILLER_0_130_121
*3047 FILLER_0_130_133
*3048 FILLER_0_130_139
*3049 FILLER_0_130_141
*3050 FILLER_0_130_15
*3051 FILLER_0_130_153
*3052 FILLER_0_130_165
*3053 FILLER_0_130_177
*3054 FILLER_0_130_189
*3055 FILLER_0_130_195
*3056 FILLER_0_130_197
*3057 FILLER_0_130_209
*3058 FILLER_0_130_221
*3059 FILLER_0_130_233
*3060 FILLER_0_130_245
*3061 FILLER_0_130_251
*3062 FILLER_0_130_253
*3063 FILLER_0_130_265
*3064 FILLER_0_130_27
*3065 FILLER_0_130_277
*3066 FILLER_0_130_289
*3067 FILLER_0_130_29
*3068 FILLER_0_130_3
*3069 FILLER_0_130_301
*3070 FILLER_0_130_307
*3071 FILLER_0_130_309
*3072 FILLER_0_130_321
*3073 FILLER_0_130_333
*3074 FILLER_0_130_345
*3075 FILLER_0_130_357
*3076 FILLER_0_130_363
*3077 FILLER_0_130_365
*3078 FILLER_0_130_377
*3079 FILLER_0_130_389
*3080 FILLER_0_130_401
*3081 FILLER_0_130_41
*3082 FILLER_0_130_413
*3083 FILLER_0_130_419
*3084 FILLER_0_130_421
*3085 FILLER_0_130_433
*3086 FILLER_0_130_445
*3087 FILLER_0_130_457
*3088 FILLER_0_130_469
*3089 FILLER_0_130_475
*3090 FILLER_0_130_477
*3091 FILLER_0_130_489
*3092 FILLER_0_130_501
*3093 FILLER_0_130_513
*3094 FILLER_0_130_525
*3095 FILLER_0_130_53
*3096 FILLER_0_130_531
*3097 FILLER_0_130_533
*3098 FILLER_0_130_545
*3099 FILLER_0_130_557
*3100 FILLER_0_130_569
*3101 FILLER_0_130_581
*3102 FILLER_0_130_587
*3103 FILLER_0_130_589
*3104 FILLER_0_130_601
*3105 FILLER_0_130_613
*3106 FILLER_0_130_625
*3107 FILLER_0_130_637
*3108 FILLER_0_130_643
*3109 FILLER_0_130_645
*3110 FILLER_0_130_65
*3111 FILLER_0_130_657
*3112 FILLER_0_130_669
*3113 FILLER_0_130_681
*3114 FILLER_0_130_693
*3115 FILLER_0_130_699
*3116 FILLER_0_130_701
*3117 FILLER_0_130_713
*3118 FILLER_0_130_725
*3119 FILLER_0_130_737
*3120 FILLER_0_130_749
*3121 FILLER_0_130_755
*3122 FILLER_0_130_757
*3123 FILLER_0_130_769
*3124 FILLER_0_130_77
*3125 FILLER_0_130_781
*3126 FILLER_0_130_793
*3127 FILLER_0_130_805
*3128 FILLER_0_130_811
*3129 FILLER_0_130_813
*3130 FILLER_0_130_821
*3131 FILLER_0_130_83
*3132 FILLER_0_130_85
*3133 FILLER_0_130_97
*3134 FILLER_0_131_105
*3135 FILLER_0_131_111
*3136 FILLER_0_131_113
*3137 FILLER_0_131_125
*3138 FILLER_0_131_137
*3139 FILLER_0_131_149
*3140 FILLER_0_131_15
*3141 FILLER_0_131_161
*3142 FILLER_0_131_167
*3143 FILLER_0_131_169
*3144 FILLER_0_131_181
*3145 FILLER_0_131_193
*3146 FILLER_0_131_205
*3147 FILLER_0_131_217
*3148 FILLER_0_131_223
*3149 FILLER_0_131_225
*3150 FILLER_0_131_237
*3151 FILLER_0_131_249
*3152 FILLER_0_131_261
*3153 FILLER_0_131_27
*3154 FILLER_0_131_273
*3155 FILLER_0_131_279
*3156 FILLER_0_131_281
*3157 FILLER_0_131_293
*3158 FILLER_0_131_3
*3159 FILLER_0_131_305
*3160 FILLER_0_131_317
*3161 FILLER_0_131_329
*3162 FILLER_0_131_335
*3163 FILLER_0_131_337
*3164 FILLER_0_131_349
*3165 FILLER_0_131_361
*3166 FILLER_0_131_373
*3167 FILLER_0_131_385
*3168 FILLER_0_131_39
*3169 FILLER_0_131_391
*3170 FILLER_0_131_393
*3171 FILLER_0_131_405
*3172 FILLER_0_131_417
*3173 FILLER_0_131_429
*3174 FILLER_0_131_441
*3175 FILLER_0_131_447
*3176 FILLER_0_131_449
*3177 FILLER_0_131_461
*3178 FILLER_0_131_473
*3179 FILLER_0_131_485
*3180 FILLER_0_131_497
*3181 FILLER_0_131_503
*3182 FILLER_0_131_505
*3183 FILLER_0_131_51
*3184 FILLER_0_131_517
*3185 FILLER_0_131_529
*3186 FILLER_0_131_541
*3187 FILLER_0_131_55
*3188 FILLER_0_131_553
*3189 FILLER_0_131_559
*3190 FILLER_0_131_561
*3191 FILLER_0_131_57
*3192 FILLER_0_131_573
*3193 FILLER_0_131_585
*3194 FILLER_0_131_597
*3195 FILLER_0_131_609
*3196 FILLER_0_131_615
*3197 FILLER_0_131_617
*3198 FILLER_0_131_629
*3199 FILLER_0_131_641
*3200 FILLER_0_131_653
*3201 FILLER_0_131_665
*3202 FILLER_0_131_671
*3203 FILLER_0_131_673
*3204 FILLER_0_131_685
*3205 FILLER_0_131_69
*3206 FILLER_0_131_697
*3207 FILLER_0_131_709
*3208 FILLER_0_131_721
*3209 FILLER_0_131_727
*3210 FILLER_0_131_729
*3211 FILLER_0_131_741
*3212 FILLER_0_131_753
*3213 FILLER_0_131_765
*3214 FILLER_0_131_777
*3215 FILLER_0_131_783
*3216 FILLER_0_131_785
*3217 FILLER_0_131_797
*3218 FILLER_0_131_809
*3219 FILLER_0_131_81
*3220 FILLER_0_131_821
*3221 FILLER_0_131_93
*3222 FILLER_0_132_109
*3223 FILLER_0_132_121
*3224 FILLER_0_132_133
*3225 FILLER_0_132_139
*3226 FILLER_0_132_141
*3227 FILLER_0_132_15
*3228 FILLER_0_132_153
*3229 FILLER_0_132_165
*3230 FILLER_0_132_177
*3231 FILLER_0_132_189
*3232 FILLER_0_132_195
*3233 FILLER_0_132_197
*3234 FILLER_0_132_209
*3235 FILLER_0_132_221
*3236 FILLER_0_132_233
*3237 FILLER_0_132_245
*3238 FILLER_0_132_251
*3239 FILLER_0_132_253
*3240 FILLER_0_132_265
*3241 FILLER_0_132_27
*3242 FILLER_0_132_277
*3243 FILLER_0_132_289
*3244 FILLER_0_132_29
*3245 FILLER_0_132_3
*3246 FILLER_0_132_301
*3247 FILLER_0_132_307
*3248 FILLER_0_132_309
*3249 FILLER_0_132_321
*3250 FILLER_0_132_333
*3251 FILLER_0_132_345
*3252 FILLER_0_132_357
*3253 FILLER_0_132_363
*3254 FILLER_0_132_365
*3255 FILLER_0_132_377
*3256 FILLER_0_132_389
*3257 FILLER_0_132_401
*3258 FILLER_0_132_41
*3259 FILLER_0_132_413
*3260 FILLER_0_132_419
*3261 FILLER_0_132_421
*3262 FILLER_0_132_433
*3263 FILLER_0_132_445
*3264 FILLER_0_132_457
*3265 FILLER_0_132_469
*3266 FILLER_0_132_475
*3267 FILLER_0_132_477
*3268 FILLER_0_132_489
*3269 FILLER_0_132_501
*3270 FILLER_0_132_513
*3271 FILLER_0_132_525
*3272 FILLER_0_132_53
*3273 FILLER_0_132_531
*3274 FILLER_0_132_533
*3275 FILLER_0_132_545
*3276 FILLER_0_132_557
*3277 FILLER_0_132_569
*3278 FILLER_0_132_581
*3279 FILLER_0_132_587
*3280 FILLER_0_132_589
*3281 FILLER_0_132_601
*3282 FILLER_0_132_613
*3283 FILLER_0_132_625
*3284 FILLER_0_132_637
*3285 FILLER_0_132_643
*3286 FILLER_0_132_645
*3287 FILLER_0_132_65
*3288 FILLER_0_132_657
*3289 FILLER_0_132_669
*3290 FILLER_0_132_681
*3291 FILLER_0_132_693
*3292 FILLER_0_132_699
*3293 FILLER_0_132_701
*3294 FILLER_0_132_713
*3295 FILLER_0_132_725
*3296 FILLER_0_132_737
*3297 FILLER_0_132_749
*3298 FILLER_0_132_755
*3299 FILLER_0_132_757
*3300 FILLER_0_132_769
*3301 FILLER_0_132_77
*3302 FILLER_0_132_781
*3303 FILLER_0_132_793
*3304 FILLER_0_132_805
*3305 FILLER_0_132_811
*3306 FILLER_0_132_813
*3307 FILLER_0_132_83
*3308 FILLER_0_132_85
*3309 FILLER_0_132_97
*3310 FILLER_0_133_105
*3311 FILLER_0_133_111
*3312 FILLER_0_133_113
*3313 FILLER_0_133_125
*3314 FILLER_0_133_137
*3315 FILLER_0_133_149
*3316 FILLER_0_133_15
*3317 FILLER_0_133_161
*3318 FILLER_0_133_167
*3319 FILLER_0_133_169
*3320 FILLER_0_133_181
*3321 FILLER_0_133_193
*3322 FILLER_0_133_205
*3323 FILLER_0_133_217
*3324 FILLER_0_133_223
*3325 FILLER_0_133_225
*3326 FILLER_0_133_237
*3327 FILLER_0_133_249
*3328 FILLER_0_133_261
*3329 FILLER_0_133_27
*3330 FILLER_0_133_273
*3331 FILLER_0_133_279
*3332 FILLER_0_133_281
*3333 FILLER_0_133_293
*3334 FILLER_0_133_3
*3335 FILLER_0_133_305
*3336 FILLER_0_133_317
*3337 FILLER_0_133_329
*3338 FILLER_0_133_335
*3339 FILLER_0_133_337
*3340 FILLER_0_133_349
*3341 FILLER_0_133_361
*3342 FILLER_0_133_373
*3343 FILLER_0_133_385
*3344 FILLER_0_133_39
*3345 FILLER_0_133_391
*3346 FILLER_0_133_393
*3347 FILLER_0_133_405
*3348 FILLER_0_133_417
*3349 FILLER_0_133_429
*3350 FILLER_0_133_441
*3351 FILLER_0_133_447
*3352 FILLER_0_133_449
*3353 FILLER_0_133_461
*3354 FILLER_0_133_473
*3355 FILLER_0_133_485
*3356 FILLER_0_133_497
*3357 FILLER_0_133_503
*3358 FILLER_0_133_505
*3359 FILLER_0_133_51
*3360 FILLER_0_133_517
*3361 FILLER_0_133_529
*3362 FILLER_0_133_541
*3363 FILLER_0_133_55
*3364 FILLER_0_133_553
*3365 FILLER_0_133_559
*3366 FILLER_0_133_561
*3367 FILLER_0_133_57
*3368 FILLER_0_133_573
*3369 FILLER_0_133_585
*3370 FILLER_0_133_597
*3371 FILLER_0_133_609
*3372 FILLER_0_133_615
*3373 FILLER_0_133_617
*3374 FILLER_0_133_629
*3375 FILLER_0_133_641
*3376 FILLER_0_133_653
*3377 FILLER_0_133_665
*3378 FILLER_0_133_671
*3379 FILLER_0_133_673
*3380 FILLER_0_133_685
*3381 FILLER_0_133_69
*3382 FILLER_0_133_697
*3383 FILLER_0_133_709
*3384 FILLER_0_133_721
*3385 FILLER_0_133_727
*3386 FILLER_0_133_729
*3387 FILLER_0_133_741
*3388 FILLER_0_133_753
*3389 FILLER_0_133_765
*3390 FILLER_0_133_777
*3391 FILLER_0_133_783
*3392 FILLER_0_133_785
*3393 FILLER_0_133_797
*3394 FILLER_0_133_809
*3395 FILLER_0_133_81
*3396 FILLER_0_133_821
*3397 FILLER_0_133_93
*3398 FILLER_0_134_109
*3399 FILLER_0_134_121
*3400 FILLER_0_134_133
*3401 FILLER_0_134_139
*3402 FILLER_0_134_141
*3403 FILLER_0_134_15
*3404 FILLER_0_134_153
*3405 FILLER_0_134_165
*3406 FILLER_0_134_177
*3407 FILLER_0_134_189
*3408 FILLER_0_134_195
*3409 FILLER_0_134_197
*3410 FILLER_0_134_209
*3411 FILLER_0_134_221
*3412 FILLER_0_134_233
*3413 FILLER_0_134_245
*3414 FILLER_0_134_251
*3415 FILLER_0_134_253
*3416 FILLER_0_134_265
*3417 FILLER_0_134_27
*3418 FILLER_0_134_277
*3419 FILLER_0_134_289
*3420 FILLER_0_134_29
*3421 FILLER_0_134_3
*3422 FILLER_0_134_301
*3423 FILLER_0_134_307
*3424 FILLER_0_134_309
*3425 FILLER_0_134_321
*3426 FILLER_0_134_333
*3427 FILLER_0_134_345
*3428 FILLER_0_134_357
*3429 FILLER_0_134_363
*3430 FILLER_0_134_365
*3431 FILLER_0_134_377
*3432 FILLER_0_134_389
*3433 FILLER_0_134_401
*3434 FILLER_0_134_41
*3435 FILLER_0_134_413
*3436 FILLER_0_134_419
*3437 FILLER_0_134_421
*3438 FILLER_0_134_433
*3439 FILLER_0_134_445
*3440 FILLER_0_134_457
*3441 FILLER_0_134_469
*3442 FILLER_0_134_475
*3443 FILLER_0_134_477
*3444 FILLER_0_134_489
*3445 FILLER_0_134_501
*3446 FILLER_0_134_513
*3447 FILLER_0_134_525
*3448 FILLER_0_134_53
*3449 FILLER_0_134_531
*3450 FILLER_0_134_533
*3451 FILLER_0_134_545
*3452 FILLER_0_134_557
*3453 FILLER_0_134_569
*3454 FILLER_0_134_581
*3455 FILLER_0_134_587
*3456 FILLER_0_134_589
*3457 FILLER_0_134_601
*3458 FILLER_0_134_613
*3459 FILLER_0_134_625
*3460 FILLER_0_134_637
*3461 FILLER_0_134_643
*3462 FILLER_0_134_645
*3463 FILLER_0_134_65
*3464 FILLER_0_134_657
*3465 FILLER_0_134_669
*3466 FILLER_0_134_681
*3467 FILLER_0_134_693
*3468 FILLER_0_134_699
*3469 FILLER_0_134_701
*3470 FILLER_0_134_713
*3471 FILLER_0_134_725
*3472 FILLER_0_134_737
*3473 FILLER_0_134_749
*3474 FILLER_0_134_755
*3475 FILLER_0_134_757
*3476 FILLER_0_134_769
*3477 FILLER_0_134_77
*3478 FILLER_0_134_781
*3479 FILLER_0_134_793
*3480 FILLER_0_134_805
*3481 FILLER_0_134_811
*3482 FILLER_0_134_813
*3483 FILLER_0_134_821
*3484 FILLER_0_134_83
*3485 FILLER_0_134_85
*3486 FILLER_0_134_97
*3487 FILLER_0_135_105
*3488 FILLER_0_135_111
*3489 FILLER_0_135_113
*3490 FILLER_0_135_125
*3491 FILLER_0_135_137
*3492 FILLER_0_135_149
*3493 FILLER_0_135_15
*3494 FILLER_0_135_161
*3495 FILLER_0_135_167
*3496 FILLER_0_135_169
*3497 FILLER_0_135_181
*3498 FILLER_0_135_193
*3499 FILLER_0_135_205
*3500 FILLER_0_135_217
*3501 FILLER_0_135_223
*3502 FILLER_0_135_225
*3503 FILLER_0_135_237
*3504 FILLER_0_135_249
*3505 FILLER_0_135_261
*3506 FILLER_0_135_27
*3507 FILLER_0_135_273
*3508 FILLER_0_135_279
*3509 FILLER_0_135_281
*3510 FILLER_0_135_293
*3511 FILLER_0_135_3
*3512 FILLER_0_135_305
*3513 FILLER_0_135_317
*3514 FILLER_0_135_329
*3515 FILLER_0_135_335
*3516 FILLER_0_135_337
*3517 FILLER_0_135_349
*3518 FILLER_0_135_361
*3519 FILLER_0_135_373
*3520 FILLER_0_135_385
*3521 FILLER_0_135_39
*3522 FILLER_0_135_391
*3523 FILLER_0_135_393
*3524 FILLER_0_135_405
*3525 FILLER_0_135_417
*3526 FILLER_0_135_429
*3527 FILLER_0_135_441
*3528 FILLER_0_135_447
*3529 FILLER_0_135_449
*3530 FILLER_0_135_461
*3531 FILLER_0_135_473
*3532 FILLER_0_135_485
*3533 FILLER_0_135_497
*3534 FILLER_0_135_503
*3535 FILLER_0_135_505
*3536 FILLER_0_135_51
*3537 FILLER_0_135_517
*3538 FILLER_0_135_529
*3539 FILLER_0_135_541
*3540 FILLER_0_135_55
*3541 FILLER_0_135_553
*3542 FILLER_0_135_559
*3543 FILLER_0_135_561
*3544 FILLER_0_135_57
*3545 FILLER_0_135_573
*3546 FILLER_0_135_585
*3547 FILLER_0_135_597
*3548 FILLER_0_135_609
*3549 FILLER_0_135_615
*3550 FILLER_0_135_617
*3551 FILLER_0_135_629
*3552 FILLER_0_135_641
*3553 FILLER_0_135_653
*3554 FILLER_0_135_665
*3555 FILLER_0_135_671
*3556 FILLER_0_135_673
*3557 FILLER_0_135_685
*3558 FILLER_0_135_69
*3559 FILLER_0_135_697
*3560 FILLER_0_135_709
*3561 FILLER_0_135_721
*3562 FILLER_0_135_727
*3563 FILLER_0_135_729
*3564 FILLER_0_135_741
*3565 FILLER_0_135_753
*3566 FILLER_0_135_765
*3567 FILLER_0_135_777
*3568 FILLER_0_135_783
*3569 FILLER_0_135_785
*3570 FILLER_0_135_797
*3571 FILLER_0_135_809
*3572 FILLER_0_135_81
*3573 FILLER_0_135_821
*3574 FILLER_0_135_93
*3575 FILLER_0_136_109
*3576 FILLER_0_136_121
*3577 FILLER_0_136_133
*3578 FILLER_0_136_139
*3579 FILLER_0_136_141
*3580 FILLER_0_136_15
*3581 FILLER_0_136_153
*3582 FILLER_0_136_165
*3583 FILLER_0_136_177
*3584 FILLER_0_136_189
*3585 FILLER_0_136_195
*3586 FILLER_0_136_197
*3587 FILLER_0_136_209
*3588 FILLER_0_136_221
*3589 FILLER_0_136_233
*3590 FILLER_0_136_245
*3591 FILLER_0_136_251
*3592 FILLER_0_136_253
*3593 FILLER_0_136_265
*3594 FILLER_0_136_27
*3595 FILLER_0_136_277
*3596 FILLER_0_136_289
*3597 FILLER_0_136_29
*3598 FILLER_0_136_3
*3599 FILLER_0_136_301
*3600 FILLER_0_136_307
*3601 FILLER_0_136_309
*3602 FILLER_0_136_321
*3603 FILLER_0_136_333
*3604 FILLER_0_136_345
*3605 FILLER_0_136_357
*3606 FILLER_0_136_363
*3607 FILLER_0_136_365
*3608 FILLER_0_136_377
*3609 FILLER_0_136_389
*3610 FILLER_0_136_401
*3611 FILLER_0_136_41
*3612 FILLER_0_136_413
*3613 FILLER_0_136_419
*3614 FILLER_0_136_421
*3615 FILLER_0_136_433
*3616 FILLER_0_136_445
*3617 FILLER_0_136_457
*3618 FILLER_0_136_469
*3619 FILLER_0_136_475
*3620 FILLER_0_136_477
*3621 FILLER_0_136_489
*3622 FILLER_0_136_501
*3623 FILLER_0_136_513
*3624 FILLER_0_136_525
*3625 FILLER_0_136_53
*3626 FILLER_0_136_531
*3627 FILLER_0_136_533
*3628 FILLER_0_136_545
*3629 FILLER_0_136_557
*3630 FILLER_0_136_569
*3631 FILLER_0_136_581
*3632 FILLER_0_136_587
*3633 FILLER_0_136_589
*3634 FILLER_0_136_601
*3635 FILLER_0_136_613
*3636 FILLER_0_136_625
*3637 FILLER_0_136_637
*3638 FILLER_0_136_643
*3639 FILLER_0_136_645
*3640 FILLER_0_136_65
*3641 FILLER_0_136_657
*3642 FILLER_0_136_669
*3643 FILLER_0_136_681
*3644 FILLER_0_136_693
*3645 FILLER_0_136_699
*3646 FILLER_0_136_701
*3647 FILLER_0_136_713
*3648 FILLER_0_136_725
*3649 FILLER_0_136_737
*3650 FILLER_0_136_749
*3651 FILLER_0_136_755
*3652 FILLER_0_136_757
*3653 FILLER_0_136_769
*3654 FILLER_0_136_77
*3655 FILLER_0_136_781
*3656 FILLER_0_136_793
*3657 FILLER_0_136_805
*3658 FILLER_0_136_811
*3659 FILLER_0_136_813
*3660 FILLER_0_136_821
*3661 FILLER_0_136_83
*3662 FILLER_0_136_85
*3663 FILLER_0_136_97
*3664 FILLER_0_137_105
*3665 FILLER_0_137_111
*3666 FILLER_0_137_113
*3667 FILLER_0_137_125
*3668 FILLER_0_137_137
*3669 FILLER_0_137_149
*3670 FILLER_0_137_15
*3671 FILLER_0_137_161
*3672 FILLER_0_137_167
*3673 FILLER_0_137_169
*3674 FILLER_0_137_181
*3675 FILLER_0_137_193
*3676 FILLER_0_137_205
*3677 FILLER_0_137_217
*3678 FILLER_0_137_223
*3679 FILLER_0_137_225
*3680 FILLER_0_137_237
*3681 FILLER_0_137_249
*3682 FILLER_0_137_261
*3683 FILLER_0_137_27
*3684 FILLER_0_137_273
*3685 FILLER_0_137_279
*3686 FILLER_0_137_281
*3687 FILLER_0_137_293
*3688 FILLER_0_137_3
*3689 FILLER_0_137_305
*3690 FILLER_0_137_317
*3691 FILLER_0_137_329
*3692 FILLER_0_137_335
*3693 FILLER_0_137_337
*3694 FILLER_0_137_349
*3695 FILLER_0_137_361
*3696 FILLER_0_137_373
*3697 FILLER_0_137_385
*3698 FILLER_0_137_39
*3699 FILLER_0_137_391
*3700 FILLER_0_137_393
*3701 FILLER_0_137_405
*3702 FILLER_0_137_417
*3703 FILLER_0_137_429
*3704 FILLER_0_137_441
*3705 FILLER_0_137_447
*3706 FILLER_0_137_449
*3707 FILLER_0_137_461
*3708 FILLER_0_137_473
*3709 FILLER_0_137_485
*3710 FILLER_0_137_497
*3711 FILLER_0_137_503
*3712 FILLER_0_137_505
*3713 FILLER_0_137_51
*3714 FILLER_0_137_517
*3715 FILLER_0_137_529
*3716 FILLER_0_137_541
*3717 FILLER_0_137_55
*3718 FILLER_0_137_553
*3719 FILLER_0_137_559
*3720 FILLER_0_137_561
*3721 FILLER_0_137_57
*3722 FILLER_0_137_573
*3723 FILLER_0_137_585
*3724 FILLER_0_137_597
*3725 FILLER_0_137_609
*3726 FILLER_0_137_615
*3727 FILLER_0_137_617
*3728 FILLER_0_137_629
*3729 FILLER_0_137_641
*3730 FILLER_0_137_653
*3731 FILLER_0_137_665
*3732 FILLER_0_137_671
*3733 FILLER_0_137_673
*3734 FILLER_0_137_685
*3735 FILLER_0_137_69
*3736 FILLER_0_137_697
*3737 FILLER_0_137_709
*3738 FILLER_0_137_721
*3739 FILLER_0_137_727
*3740 FILLER_0_137_729
*3741 FILLER_0_137_741
*3742 FILLER_0_137_753
*3743 FILLER_0_137_765
*3744 FILLER_0_137_777
*3745 FILLER_0_137_783
*3746 FILLER_0_137_785
*3747 FILLER_0_137_797
*3748 FILLER_0_137_809
*3749 FILLER_0_137_81
*3750 FILLER_0_137_821
*3751 FILLER_0_137_93
*3752 FILLER_0_138_106
*3753 FILLER_0_138_113
*3754 FILLER_0_138_125
*3755 FILLER_0_138_137
*3756 FILLER_0_138_141
*3757 FILLER_0_138_153
*3758 FILLER_0_138_165
*3759 FILLER_0_138_169
*3760 FILLER_0_138_18
*3761 FILLER_0_138_181
*3762 FILLER_0_138_193
*3763 FILLER_0_138_197
*3764 FILLER_0_138_206
*3765 FILLER_0_138_218
*3766 FILLER_0_138_225
*3767 FILLER_0_138_237
*3768 FILLER_0_138_249
*3769 FILLER_0_138_253
*3770 FILLER_0_138_26
*3771 FILLER_0_138_265
*3772 FILLER_0_138_277
*3773 FILLER_0_138_281
*3774 FILLER_0_138_29
*3775 FILLER_0_138_293
*3776 FILLER_0_138_305
*3777 FILLER_0_138_309
*3778 FILLER_0_138_321
*3779 FILLER_0_138_325
*3780 FILLER_0_138_333
*3781 FILLER_0_138_337
*3782 FILLER_0_138_349
*3783 FILLER_0_138_361
*3784 FILLER_0_138_365
*3785 FILLER_0_138_377
*3786 FILLER_0_138_389
*3787 FILLER_0_138_393
*3788 FILLER_0_138_405
*3789 FILLER_0_138_41
*3790 FILLER_0_138_417
*3791 FILLER_0_138_421
*3792 FILLER_0_138_433
*3793 FILLER_0_138_444
*3794 FILLER_0_138_449
*3795 FILLER_0_138_461
*3796 FILLER_0_138_473
*3797 FILLER_0_138_477
*3798 FILLER_0_138_489
*3799 FILLER_0_138_501
*3800 FILLER_0_138_505
*3801 FILLER_0_138_517
*3802 FILLER_0_138_529
*3803 FILLER_0_138_53
*3804 FILLER_0_138_533
*3805 FILLER_0_138_545
*3806 FILLER_0_138_557
*3807 FILLER_0_138_564
*3808 FILLER_0_138_57
*3809 FILLER_0_138_576
*3810 FILLER_0_138_589
*3811 FILLER_0_138_6
*3812 FILLER_0_138_601
*3813 FILLER_0_138_613
*3814 FILLER_0_138_617
*3815 FILLER_0_138_629
*3816 FILLER_0_138_641
*3817 FILLER_0_138_645
*3818 FILLER_0_138_657
*3819 FILLER_0_138_669
*3820 FILLER_0_138_676
*3821 FILLER_0_138_688
*3822 FILLER_0_138_69
*3823 FILLER_0_138_701
*3824 FILLER_0_138_713
*3825 FILLER_0_138_725
*3826 FILLER_0_138_729
*3827 FILLER_0_138_741
*3828 FILLER_0_138_753
*3829 FILLER_0_138_757
*3830 FILLER_0_138_769
*3831 FILLER_0_138_781
*3832 FILLER_0_138_785
*3833 FILLER_0_138_794
*3834 FILLER_0_138_806
*3835 FILLER_0_138_81
*3836 FILLER_0_138_813
*3837 FILLER_0_138_821
*3838 FILLER_0_138_85
*3839 FILLER_0_138_94
*3840 FILLER_0_13_105
*3841 FILLER_0_13_111
*3842 FILLER_0_13_113
*3843 FILLER_0_13_125
*3844 FILLER_0_13_137
*3845 FILLER_0_13_149
*3846 FILLER_0_13_15
*3847 FILLER_0_13_161
*3848 FILLER_0_13_167
*3849 FILLER_0_13_169
*3850 FILLER_0_13_181
*3851 FILLER_0_13_193
*3852 FILLER_0_13_205
*3853 FILLER_0_13_217
*3854 FILLER_0_13_223
*3855 FILLER_0_13_225
*3856 FILLER_0_13_237
*3857 FILLER_0_13_249
*3858 FILLER_0_13_261
*3859 FILLER_0_13_27
*3860 FILLER_0_13_273
*3861 FILLER_0_13_279
*3862 FILLER_0_13_281
*3863 FILLER_0_13_293
*3864 FILLER_0_13_3
*3865 FILLER_0_13_305
*3866 FILLER_0_13_317
*3867 FILLER_0_13_329
*3868 FILLER_0_13_335
*3869 FILLER_0_13_337
*3870 FILLER_0_13_349
*3871 FILLER_0_13_361
*3872 FILLER_0_13_373
*3873 FILLER_0_13_385
*3874 FILLER_0_13_39
*3875 FILLER_0_13_391
*3876 FILLER_0_13_393
*3877 FILLER_0_13_405
*3878 FILLER_0_13_417
*3879 FILLER_0_13_429
*3880 FILLER_0_13_441
*3881 FILLER_0_13_447
*3882 FILLER_0_13_449
*3883 FILLER_0_13_461
*3884 FILLER_0_13_473
*3885 FILLER_0_13_485
*3886 FILLER_0_13_497
*3887 FILLER_0_13_503
*3888 FILLER_0_13_505
*3889 FILLER_0_13_51
*3890 FILLER_0_13_517
*3891 FILLER_0_13_529
*3892 FILLER_0_13_541
*3893 FILLER_0_13_55
*3894 FILLER_0_13_553
*3895 FILLER_0_13_559
*3896 FILLER_0_13_561
*3897 FILLER_0_13_57
*3898 FILLER_0_13_573
*3899 FILLER_0_13_585
*3900 FILLER_0_13_597
*3901 FILLER_0_13_609
*3902 FILLER_0_13_615
*3903 FILLER_0_13_617
*3904 FILLER_0_13_629
*3905 FILLER_0_13_641
*3906 FILLER_0_13_653
*3907 FILLER_0_13_665
*3908 FILLER_0_13_671
*3909 FILLER_0_13_673
*3910 FILLER_0_13_685
*3911 FILLER_0_13_69
*3912 FILLER_0_13_697
*3913 FILLER_0_13_709
*3914 FILLER_0_13_721
*3915 FILLER_0_13_727
*3916 FILLER_0_13_729
*3917 FILLER_0_13_741
*3918 FILLER_0_13_753
*3919 FILLER_0_13_765
*3920 FILLER_0_13_777
*3921 FILLER_0_13_783
*3922 FILLER_0_13_785
*3923 FILLER_0_13_797
*3924 FILLER_0_13_809
*3925 FILLER_0_13_81
*3926 FILLER_0_13_821
*3927 FILLER_0_13_93
*3928 FILLER_0_14_109
*3929 FILLER_0_14_121
*3930 FILLER_0_14_133
*3931 FILLER_0_14_139
*3932 FILLER_0_14_141
*3933 FILLER_0_14_15
*3934 FILLER_0_14_153
*3935 FILLER_0_14_165
*3936 FILLER_0_14_177
*3937 FILLER_0_14_189
*3938 FILLER_0_14_195
*3939 FILLER_0_14_197
*3940 FILLER_0_14_209
*3941 FILLER_0_14_221
*3942 FILLER_0_14_233
*3943 FILLER_0_14_245
*3944 FILLER_0_14_251
*3945 FILLER_0_14_253
*3946 FILLER_0_14_265
*3947 FILLER_0_14_27
*3948 FILLER_0_14_277
*3949 FILLER_0_14_289
*3950 FILLER_0_14_29
*3951 FILLER_0_14_3
*3952 FILLER_0_14_301
*3953 FILLER_0_14_307
*3954 FILLER_0_14_309
*3955 FILLER_0_14_321
*3956 FILLER_0_14_333
*3957 FILLER_0_14_345
*3958 FILLER_0_14_357
*3959 FILLER_0_14_363
*3960 FILLER_0_14_365
*3961 FILLER_0_14_377
*3962 FILLER_0_14_389
*3963 FILLER_0_14_401
*3964 FILLER_0_14_41
*3965 FILLER_0_14_413
*3966 FILLER_0_14_419
*3967 FILLER_0_14_421
*3968 FILLER_0_14_433
*3969 FILLER_0_14_445
*3970 FILLER_0_14_457
*3971 FILLER_0_14_469
*3972 FILLER_0_14_475
*3973 FILLER_0_14_477
*3974 FILLER_0_14_489
*3975 FILLER_0_14_501
*3976 FILLER_0_14_513
*3977 FILLER_0_14_525
*3978 FILLER_0_14_53
*3979 FILLER_0_14_531
*3980 FILLER_0_14_533
*3981 FILLER_0_14_545
*3982 FILLER_0_14_557
*3983 FILLER_0_14_569
*3984 FILLER_0_14_581
*3985 FILLER_0_14_587
*3986 FILLER_0_14_589
*3987 FILLER_0_14_601
*3988 FILLER_0_14_613
*3989 FILLER_0_14_625
*3990 FILLER_0_14_637
*3991 FILLER_0_14_643
*3992 FILLER_0_14_645
*3993 FILLER_0_14_65
*3994 FILLER_0_14_657
*3995 FILLER_0_14_669
*3996 FILLER_0_14_681
*3997 FILLER_0_14_693
*3998 FILLER_0_14_699
*3999 FILLER_0_14_701
*4000 FILLER_0_14_713
*4001 FILLER_0_14_725
*4002 FILLER_0_14_737
*4003 FILLER_0_14_749
*4004 FILLER_0_14_755
*4005 FILLER_0_14_757
*4006 FILLER_0_14_769
*4007 FILLER_0_14_77
*4008 FILLER_0_14_781
*4009 FILLER_0_14_793
*4010 FILLER_0_14_805
*4011 FILLER_0_14_811
*4012 FILLER_0_14_813
*4013 FILLER_0_14_821
*4014 FILLER_0_14_83
*4015 FILLER_0_14_85
*4016 FILLER_0_14_97
*4017 FILLER_0_15_105
*4018 FILLER_0_15_111
*4019 FILLER_0_15_113
*4020 FILLER_0_15_125
*4021 FILLER_0_15_137
*4022 FILLER_0_15_149
*4023 FILLER_0_15_15
*4024 FILLER_0_15_161
*4025 FILLER_0_15_167
*4026 FILLER_0_15_169
*4027 FILLER_0_15_181
*4028 FILLER_0_15_193
*4029 FILLER_0_15_205
*4030 FILLER_0_15_217
*4031 FILLER_0_15_223
*4032 FILLER_0_15_225
*4033 FILLER_0_15_237
*4034 FILLER_0_15_249
*4035 FILLER_0_15_261
*4036 FILLER_0_15_27
*4037 FILLER_0_15_273
*4038 FILLER_0_15_279
*4039 FILLER_0_15_281
*4040 FILLER_0_15_293
*4041 FILLER_0_15_3
*4042 FILLER_0_15_305
*4043 FILLER_0_15_317
*4044 FILLER_0_15_329
*4045 FILLER_0_15_335
*4046 FILLER_0_15_337
*4047 FILLER_0_15_349
*4048 FILLER_0_15_361
*4049 FILLER_0_15_373
*4050 FILLER_0_15_385
*4051 FILLER_0_15_39
*4052 FILLER_0_15_391
*4053 FILLER_0_15_393
*4054 FILLER_0_15_405
*4055 FILLER_0_15_417
*4056 FILLER_0_15_429
*4057 FILLER_0_15_441
*4058 FILLER_0_15_447
*4059 FILLER_0_15_449
*4060 FILLER_0_15_461
*4061 FILLER_0_15_473
*4062 FILLER_0_15_485
*4063 FILLER_0_15_497
*4064 FILLER_0_15_503
*4065 FILLER_0_15_505
*4066 FILLER_0_15_51
*4067 FILLER_0_15_517
*4068 FILLER_0_15_529
*4069 FILLER_0_15_541
*4070 FILLER_0_15_55
*4071 FILLER_0_15_553
*4072 FILLER_0_15_559
*4073 FILLER_0_15_561
*4074 FILLER_0_15_57
*4075 FILLER_0_15_573
*4076 FILLER_0_15_585
*4077 FILLER_0_15_597
*4078 FILLER_0_15_609
*4079 FILLER_0_15_615
*4080 FILLER_0_15_617
*4081 FILLER_0_15_629
*4082 FILLER_0_15_641
*4083 FILLER_0_15_653
*4084 FILLER_0_15_665
*4085 FILLER_0_15_671
*4086 FILLER_0_15_673
*4087 FILLER_0_15_685
*4088 FILLER_0_15_69
*4089 FILLER_0_15_697
*4090 FILLER_0_15_709
*4091 FILLER_0_15_721
*4092 FILLER_0_15_727
*4093 FILLER_0_15_729
*4094 FILLER_0_15_741
*4095 FILLER_0_15_753
*4096 FILLER_0_15_765
*4097 FILLER_0_15_777
*4098 FILLER_0_15_783
*4099 FILLER_0_15_785
*4100 FILLER_0_15_797
*4101 FILLER_0_15_809
*4102 FILLER_0_15_81
*4103 FILLER_0_15_821
*4104 FILLER_0_15_93
*4105 FILLER_0_16_109
*4106 FILLER_0_16_121
*4107 FILLER_0_16_133
*4108 FILLER_0_16_139
*4109 FILLER_0_16_141
*4110 FILLER_0_16_153
*4111 FILLER_0_16_165
*4112 FILLER_0_16_177
*4113 FILLER_0_16_18
*4114 FILLER_0_16_189
*4115 FILLER_0_16_195
*4116 FILLER_0_16_197
*4117 FILLER_0_16_209
*4118 FILLER_0_16_221
*4119 FILLER_0_16_233
*4120 FILLER_0_16_245
*4121 FILLER_0_16_251
*4122 FILLER_0_16_253
*4123 FILLER_0_16_26
*4124 FILLER_0_16_265
*4125 FILLER_0_16_277
*4126 FILLER_0_16_289
*4127 FILLER_0_16_29
*4128 FILLER_0_16_301
*4129 FILLER_0_16_307
*4130 FILLER_0_16_309
*4131 FILLER_0_16_321
*4132 FILLER_0_16_333
*4133 FILLER_0_16_345
*4134 FILLER_0_16_357
*4135 FILLER_0_16_363
*4136 FILLER_0_16_365
*4137 FILLER_0_16_377
*4138 FILLER_0_16_389
*4139 FILLER_0_16_401
*4140 FILLER_0_16_41
*4141 FILLER_0_16_413
*4142 FILLER_0_16_419
*4143 FILLER_0_16_421
*4144 FILLER_0_16_433
*4145 FILLER_0_16_445
*4146 FILLER_0_16_457
*4147 FILLER_0_16_469
*4148 FILLER_0_16_475
*4149 FILLER_0_16_477
*4150 FILLER_0_16_489
*4151 FILLER_0_16_501
*4152 FILLER_0_16_513
*4153 FILLER_0_16_525
*4154 FILLER_0_16_53
*4155 FILLER_0_16_531
*4156 FILLER_0_16_533
*4157 FILLER_0_16_545
*4158 FILLER_0_16_557
*4159 FILLER_0_16_569
*4160 FILLER_0_16_581
*4161 FILLER_0_16_587
*4162 FILLER_0_16_589
*4163 FILLER_0_16_6
*4164 FILLER_0_16_601
*4165 FILLER_0_16_613
*4166 FILLER_0_16_625
*4167 FILLER_0_16_637
*4168 FILLER_0_16_643
*4169 FILLER_0_16_645
*4170 FILLER_0_16_65
*4171 FILLER_0_16_657
*4172 FILLER_0_16_669
*4173 FILLER_0_16_681
*4174 FILLER_0_16_693
*4175 FILLER_0_16_699
*4176 FILLER_0_16_701
*4177 FILLER_0_16_713
*4178 FILLER_0_16_725
*4179 FILLER_0_16_737
*4180 FILLER_0_16_749
*4181 FILLER_0_16_755
*4182 FILLER_0_16_757
*4183 FILLER_0_16_769
*4184 FILLER_0_16_77
*4185 FILLER_0_16_781
*4186 FILLER_0_16_793
*4187 FILLER_0_16_805
*4188 FILLER_0_16_811
*4189 FILLER_0_16_813
*4190 FILLER_0_16_821
*4191 FILLER_0_16_83
*4192 FILLER_0_16_85
*4193 FILLER_0_16_97
*4194 FILLER_0_17_105
*4195 FILLER_0_17_111
*4196 FILLER_0_17_113
*4197 FILLER_0_17_125
*4198 FILLER_0_17_137
*4199 FILLER_0_17_149
*4200 FILLER_0_17_15
*4201 FILLER_0_17_161
*4202 FILLER_0_17_167
*4203 FILLER_0_17_169
*4204 FILLER_0_17_181
*4205 FILLER_0_17_193
*4206 FILLER_0_17_205
*4207 FILLER_0_17_217
*4208 FILLER_0_17_223
*4209 FILLER_0_17_225
*4210 FILLER_0_17_237
*4211 FILLER_0_17_249
*4212 FILLER_0_17_261
*4213 FILLER_0_17_27
*4214 FILLER_0_17_273
*4215 FILLER_0_17_279
*4216 FILLER_0_17_281
*4217 FILLER_0_17_293
*4218 FILLER_0_17_3
*4219 FILLER_0_17_305
*4220 FILLER_0_17_317
*4221 FILLER_0_17_329
*4222 FILLER_0_17_335
*4223 FILLER_0_17_337
*4224 FILLER_0_17_349
*4225 FILLER_0_17_361
*4226 FILLER_0_17_373
*4227 FILLER_0_17_385
*4228 FILLER_0_17_39
*4229 FILLER_0_17_391
*4230 FILLER_0_17_393
*4231 FILLER_0_17_405
*4232 FILLER_0_17_417
*4233 FILLER_0_17_429
*4234 FILLER_0_17_441
*4235 FILLER_0_17_447
*4236 FILLER_0_17_449
*4237 FILLER_0_17_461
*4238 FILLER_0_17_473
*4239 FILLER_0_17_485
*4240 FILLER_0_17_497
*4241 FILLER_0_17_503
*4242 FILLER_0_17_505
*4243 FILLER_0_17_51
*4244 FILLER_0_17_517
*4245 FILLER_0_17_529
*4246 FILLER_0_17_541
*4247 FILLER_0_17_55
*4248 FILLER_0_17_553
*4249 FILLER_0_17_559
*4250 FILLER_0_17_561
*4251 FILLER_0_17_57
*4252 FILLER_0_17_573
*4253 FILLER_0_17_585
*4254 FILLER_0_17_597
*4255 FILLER_0_17_609
*4256 FILLER_0_17_615
*4257 FILLER_0_17_617
*4258 FILLER_0_17_629
*4259 FILLER_0_17_641
*4260 FILLER_0_17_653
*4261 FILLER_0_17_665
*4262 FILLER_0_17_671
*4263 FILLER_0_17_673
*4264 FILLER_0_17_685
*4265 FILLER_0_17_69
*4266 FILLER_0_17_697
*4267 FILLER_0_17_709
*4268 FILLER_0_17_721
*4269 FILLER_0_17_727
*4270 FILLER_0_17_729
*4271 FILLER_0_17_741
*4272 FILLER_0_17_753
*4273 FILLER_0_17_765
*4274 FILLER_0_17_777
*4275 FILLER_0_17_783
*4276 FILLER_0_17_785
*4277 FILLER_0_17_797
*4278 FILLER_0_17_809
*4279 FILLER_0_17_81
*4280 FILLER_0_17_821
*4281 FILLER_0_17_93
*4282 FILLER_0_18_109
*4283 FILLER_0_18_121
*4284 FILLER_0_18_133
*4285 FILLER_0_18_139
*4286 FILLER_0_18_141
*4287 FILLER_0_18_15
*4288 FILLER_0_18_153
*4289 FILLER_0_18_165
*4290 FILLER_0_18_177
*4291 FILLER_0_18_189
*4292 FILLER_0_18_195
*4293 FILLER_0_18_197
*4294 FILLER_0_18_209
*4295 FILLER_0_18_221
*4296 FILLER_0_18_233
*4297 FILLER_0_18_245
*4298 FILLER_0_18_251
*4299 FILLER_0_18_253
*4300 FILLER_0_18_265
*4301 FILLER_0_18_27
*4302 FILLER_0_18_277
*4303 FILLER_0_18_289
*4304 FILLER_0_18_29
*4305 FILLER_0_18_3
*4306 FILLER_0_18_301
*4307 FILLER_0_18_307
*4308 FILLER_0_18_309
*4309 FILLER_0_18_321
*4310 FILLER_0_18_333
*4311 FILLER_0_18_345
*4312 FILLER_0_18_357
*4313 FILLER_0_18_363
*4314 FILLER_0_18_365
*4315 FILLER_0_18_377
*4316 FILLER_0_18_389
*4317 FILLER_0_18_401
*4318 FILLER_0_18_41
*4319 FILLER_0_18_413
*4320 FILLER_0_18_419
*4321 FILLER_0_18_421
*4322 FILLER_0_18_433
*4323 FILLER_0_18_445
*4324 FILLER_0_18_457
*4325 FILLER_0_18_469
*4326 FILLER_0_18_475
*4327 FILLER_0_18_477
*4328 FILLER_0_18_489
*4329 FILLER_0_18_501
*4330 FILLER_0_18_513
*4331 FILLER_0_18_525
*4332 FILLER_0_18_53
*4333 FILLER_0_18_531
*4334 FILLER_0_18_533
*4335 FILLER_0_18_545
*4336 FILLER_0_18_557
*4337 FILLER_0_18_569
*4338 FILLER_0_18_581
*4339 FILLER_0_18_587
*4340 FILLER_0_18_589
*4341 FILLER_0_18_601
*4342 FILLER_0_18_613
*4343 FILLER_0_18_625
*4344 FILLER_0_18_637
*4345 FILLER_0_18_643
*4346 FILLER_0_18_645
*4347 FILLER_0_18_65
*4348 FILLER_0_18_657
*4349 FILLER_0_18_669
*4350 FILLER_0_18_681
*4351 FILLER_0_18_693
*4352 FILLER_0_18_699
*4353 FILLER_0_18_701
*4354 FILLER_0_18_713
*4355 FILLER_0_18_725
*4356 FILLER_0_18_737
*4357 FILLER_0_18_749
*4358 FILLER_0_18_755
*4359 FILLER_0_18_757
*4360 FILLER_0_18_769
*4361 FILLER_0_18_77
*4362 FILLER_0_18_781
*4363 FILLER_0_18_793
*4364 FILLER_0_18_805
*4365 FILLER_0_18_811
*4366 FILLER_0_18_813
*4367 FILLER_0_18_821
*4368 FILLER_0_18_83
*4369 FILLER_0_18_85
*4370 FILLER_0_18_97
*4371 FILLER_0_19_105
*4372 FILLER_0_19_111
*4373 FILLER_0_19_113
*4374 FILLER_0_19_125
*4375 FILLER_0_19_137
*4376 FILLER_0_19_149
*4377 FILLER_0_19_15
*4378 FILLER_0_19_161
*4379 FILLER_0_19_167
*4380 FILLER_0_19_169
*4381 FILLER_0_19_181
*4382 FILLER_0_19_193
*4383 FILLER_0_19_205
*4384 FILLER_0_19_217
*4385 FILLER_0_19_223
*4386 FILLER_0_19_225
*4387 FILLER_0_19_237
*4388 FILLER_0_19_249
*4389 FILLER_0_19_261
*4390 FILLER_0_19_27
*4391 FILLER_0_19_273
*4392 FILLER_0_19_279
*4393 FILLER_0_19_281
*4394 FILLER_0_19_293
*4395 FILLER_0_19_3
*4396 FILLER_0_19_305
*4397 FILLER_0_19_317
*4398 FILLER_0_19_329
*4399 FILLER_0_19_335
*4400 FILLER_0_19_337
*4401 FILLER_0_19_349
*4402 FILLER_0_19_361
*4403 FILLER_0_19_373
*4404 FILLER_0_19_385
*4405 FILLER_0_19_39
*4406 FILLER_0_19_391
*4407 FILLER_0_19_393
*4408 FILLER_0_19_405
*4409 FILLER_0_19_417
*4410 FILLER_0_19_429
*4411 FILLER_0_19_441
*4412 FILLER_0_19_447
*4413 FILLER_0_19_449
*4414 FILLER_0_19_461
*4415 FILLER_0_19_473
*4416 FILLER_0_19_485
*4417 FILLER_0_19_497
*4418 FILLER_0_19_503
*4419 FILLER_0_19_505
*4420 FILLER_0_19_51
*4421 FILLER_0_19_517
*4422 FILLER_0_19_529
*4423 FILLER_0_19_541
*4424 FILLER_0_19_55
*4425 FILLER_0_19_553
*4426 FILLER_0_19_559
*4427 FILLER_0_19_561
*4428 FILLER_0_19_57
*4429 FILLER_0_19_573
*4430 FILLER_0_19_585
*4431 FILLER_0_19_597
*4432 FILLER_0_19_609
*4433 FILLER_0_19_615
*4434 FILLER_0_19_617
*4435 FILLER_0_19_629
*4436 FILLER_0_19_641
*4437 FILLER_0_19_653
*4438 FILLER_0_19_665
*4439 FILLER_0_19_671
*4440 FILLER_0_19_673
*4441 FILLER_0_19_685
*4442 FILLER_0_19_69
*4443 FILLER_0_19_697
*4444 FILLER_0_19_709
*4445 FILLER_0_19_721
*4446 FILLER_0_19_727
*4447 FILLER_0_19_729
*4448 FILLER_0_19_741
*4449 FILLER_0_19_753
*4450 FILLER_0_19_765
*4451 FILLER_0_19_777
*4452 FILLER_0_19_783
*4453 FILLER_0_19_785
*4454 FILLER_0_19_797
*4455 FILLER_0_19_809
*4456 FILLER_0_19_81
*4457 FILLER_0_19_821
*4458 FILLER_0_19_93
*4459 FILLER_0_1_105
*4460 FILLER_0_1_111
*4461 FILLER_0_1_113
*4462 FILLER_0_1_125
*4463 FILLER_0_1_137
*4464 FILLER_0_1_149
*4465 FILLER_0_1_15
*4466 FILLER_0_1_161
*4467 FILLER_0_1_167
*4468 FILLER_0_1_169
*4469 FILLER_0_1_181
*4470 FILLER_0_1_193
*4471 FILLER_0_1_205
*4472 FILLER_0_1_217
*4473 FILLER_0_1_223
*4474 FILLER_0_1_225
*4475 FILLER_0_1_237
*4476 FILLER_0_1_249
*4477 FILLER_0_1_261
*4478 FILLER_0_1_27
*4479 FILLER_0_1_273
*4480 FILLER_0_1_279
*4481 FILLER_0_1_281
*4482 FILLER_0_1_293
*4483 FILLER_0_1_3
*4484 FILLER_0_1_305
*4485 FILLER_0_1_328
*4486 FILLER_0_1_337
*4487 FILLER_0_1_349
*4488 FILLER_0_1_361
*4489 FILLER_0_1_373
*4490 FILLER_0_1_385
*4491 FILLER_0_1_39
*4492 FILLER_0_1_391
*4493 FILLER_0_1_393
*4494 FILLER_0_1_405
*4495 FILLER_0_1_417
*4496 FILLER_0_1_429
*4497 FILLER_0_1_441
*4498 FILLER_0_1_447
*4499 FILLER_0_1_449
*4500 FILLER_0_1_461
*4501 FILLER_0_1_473
*4502 FILLER_0_1_485
*4503 FILLER_0_1_497
*4504 FILLER_0_1_503
*4505 FILLER_0_1_505
*4506 FILLER_0_1_51
*4507 FILLER_0_1_517
*4508 FILLER_0_1_529
*4509 FILLER_0_1_541
*4510 FILLER_0_1_55
*4511 FILLER_0_1_553
*4512 FILLER_0_1_559
*4513 FILLER_0_1_561
*4514 FILLER_0_1_57
*4515 FILLER_0_1_573
*4516 FILLER_0_1_585
*4517 FILLER_0_1_597
*4518 FILLER_0_1_609
*4519 FILLER_0_1_615
*4520 FILLER_0_1_617
*4521 FILLER_0_1_629
*4522 FILLER_0_1_641
*4523 FILLER_0_1_653
*4524 FILLER_0_1_665
*4525 FILLER_0_1_671
*4526 FILLER_0_1_673
*4527 FILLER_0_1_685
*4528 FILLER_0_1_69
*4529 FILLER_0_1_697
*4530 FILLER_0_1_709
*4531 FILLER_0_1_721
*4532 FILLER_0_1_727
*4533 FILLER_0_1_729
*4534 FILLER_0_1_741
*4535 FILLER_0_1_753
*4536 FILLER_0_1_765
*4537 FILLER_0_1_777
*4538 FILLER_0_1_783
*4539 FILLER_0_1_785
*4540 FILLER_0_1_797
*4541 FILLER_0_1_809
*4542 FILLER_0_1_81
*4543 FILLER_0_1_821
*4544 FILLER_0_1_93
*4545 FILLER_0_20_109
*4546 FILLER_0_20_121
*4547 FILLER_0_20_133
*4548 FILLER_0_20_139
*4549 FILLER_0_20_141
*4550 FILLER_0_20_15
*4551 FILLER_0_20_153
*4552 FILLER_0_20_165
*4553 FILLER_0_20_177
*4554 FILLER_0_20_189
*4555 FILLER_0_20_195
*4556 FILLER_0_20_197
*4557 FILLER_0_20_209
*4558 FILLER_0_20_221
*4559 FILLER_0_20_233
*4560 FILLER_0_20_245
*4561 FILLER_0_20_251
*4562 FILLER_0_20_253
*4563 FILLER_0_20_265
*4564 FILLER_0_20_27
*4565 FILLER_0_20_277
*4566 FILLER_0_20_289
*4567 FILLER_0_20_29
*4568 FILLER_0_20_3
*4569 FILLER_0_20_301
*4570 FILLER_0_20_307
*4571 FILLER_0_20_309
*4572 FILLER_0_20_321
*4573 FILLER_0_20_333
*4574 FILLER_0_20_345
*4575 FILLER_0_20_357
*4576 FILLER_0_20_363
*4577 FILLER_0_20_365
*4578 FILLER_0_20_377
*4579 FILLER_0_20_389
*4580 FILLER_0_20_401
*4581 FILLER_0_20_41
*4582 FILLER_0_20_413
*4583 FILLER_0_20_419
*4584 FILLER_0_20_421
*4585 FILLER_0_20_433
*4586 FILLER_0_20_445
*4587 FILLER_0_20_457
*4588 FILLER_0_20_469
*4589 FILLER_0_20_475
*4590 FILLER_0_20_477
*4591 FILLER_0_20_489
*4592 FILLER_0_20_501
*4593 FILLER_0_20_513
*4594 FILLER_0_20_525
*4595 FILLER_0_20_53
*4596 FILLER_0_20_531
*4597 FILLER_0_20_533
*4598 FILLER_0_20_545
*4599 FILLER_0_20_557
*4600 FILLER_0_20_569
*4601 FILLER_0_20_581
*4602 FILLER_0_20_587
*4603 FILLER_0_20_589
*4604 FILLER_0_20_601
*4605 FILLER_0_20_613
*4606 FILLER_0_20_625
*4607 FILLER_0_20_637
*4608 FILLER_0_20_643
*4609 FILLER_0_20_645
*4610 FILLER_0_20_65
*4611 FILLER_0_20_657
*4612 FILLER_0_20_669
*4613 FILLER_0_20_681
*4614 FILLER_0_20_693
*4615 FILLER_0_20_699
*4616 FILLER_0_20_701
*4617 FILLER_0_20_713
*4618 FILLER_0_20_725
*4619 FILLER_0_20_737
*4620 FILLER_0_20_749
*4621 FILLER_0_20_755
*4622 FILLER_0_20_757
*4623 FILLER_0_20_769
*4624 FILLER_0_20_77
*4625 FILLER_0_20_781
*4626 FILLER_0_20_793
*4627 FILLER_0_20_805
*4628 FILLER_0_20_811
*4629 FILLER_0_20_813
*4630 FILLER_0_20_821
*4631 FILLER_0_20_83
*4632 FILLER_0_20_85
*4633 FILLER_0_20_97
*4634 FILLER_0_21_105
*4635 FILLER_0_21_111
*4636 FILLER_0_21_113
*4637 FILLER_0_21_125
*4638 FILLER_0_21_137
*4639 FILLER_0_21_149
*4640 FILLER_0_21_15
*4641 FILLER_0_21_161
*4642 FILLER_0_21_167
*4643 FILLER_0_21_169
*4644 FILLER_0_21_181
*4645 FILLER_0_21_193
*4646 FILLER_0_21_205
*4647 FILLER_0_21_217
*4648 FILLER_0_21_223
*4649 FILLER_0_21_225
*4650 FILLER_0_21_237
*4651 FILLER_0_21_249
*4652 FILLER_0_21_261
*4653 FILLER_0_21_27
*4654 FILLER_0_21_273
*4655 FILLER_0_21_279
*4656 FILLER_0_21_281
*4657 FILLER_0_21_293
*4658 FILLER_0_21_3
*4659 FILLER_0_21_305
*4660 FILLER_0_21_317
*4661 FILLER_0_21_329
*4662 FILLER_0_21_335
*4663 FILLER_0_21_337
*4664 FILLER_0_21_349
*4665 FILLER_0_21_361
*4666 FILLER_0_21_373
*4667 FILLER_0_21_385
*4668 FILLER_0_21_39
*4669 FILLER_0_21_391
*4670 FILLER_0_21_393
*4671 FILLER_0_21_405
*4672 FILLER_0_21_417
*4673 FILLER_0_21_429
*4674 FILLER_0_21_441
*4675 FILLER_0_21_447
*4676 FILLER_0_21_449
*4677 FILLER_0_21_461
*4678 FILLER_0_21_473
*4679 FILLER_0_21_485
*4680 FILLER_0_21_497
*4681 FILLER_0_21_503
*4682 FILLER_0_21_505
*4683 FILLER_0_21_51
*4684 FILLER_0_21_517
*4685 FILLER_0_21_529
*4686 FILLER_0_21_541
*4687 FILLER_0_21_55
*4688 FILLER_0_21_553
*4689 FILLER_0_21_559
*4690 FILLER_0_21_561
*4691 FILLER_0_21_57
*4692 FILLER_0_21_573
*4693 FILLER_0_21_585
*4694 FILLER_0_21_597
*4695 FILLER_0_21_609
*4696 FILLER_0_21_615
*4697 FILLER_0_21_617
*4698 FILLER_0_21_629
*4699 FILLER_0_21_641
*4700 FILLER_0_21_653
*4701 FILLER_0_21_665
*4702 FILLER_0_21_671
*4703 FILLER_0_21_673
*4704 FILLER_0_21_685
*4705 FILLER_0_21_69
*4706 FILLER_0_21_697
*4707 FILLER_0_21_709
*4708 FILLER_0_21_721
*4709 FILLER_0_21_727
*4710 FILLER_0_21_729
*4711 FILLER_0_21_741
*4712 FILLER_0_21_753
*4713 FILLER_0_21_765
*4714 FILLER_0_21_777
*4715 FILLER_0_21_783
*4716 FILLER_0_21_785
*4717 FILLER_0_21_797
*4718 FILLER_0_21_809
*4719 FILLER_0_21_81
*4720 FILLER_0_21_821
*4721 FILLER_0_21_93
*4722 FILLER_0_22_109
*4723 FILLER_0_22_121
*4724 FILLER_0_22_133
*4725 FILLER_0_22_139
*4726 FILLER_0_22_141
*4727 FILLER_0_22_15
*4728 FILLER_0_22_153
*4729 FILLER_0_22_165
*4730 FILLER_0_22_177
*4731 FILLER_0_22_189
*4732 FILLER_0_22_195
*4733 FILLER_0_22_197
*4734 FILLER_0_22_209
*4735 FILLER_0_22_221
*4736 FILLER_0_22_233
*4737 FILLER_0_22_245
*4738 FILLER_0_22_251
*4739 FILLER_0_22_253
*4740 FILLER_0_22_265
*4741 FILLER_0_22_27
*4742 FILLER_0_22_277
*4743 FILLER_0_22_289
*4744 FILLER_0_22_29
*4745 FILLER_0_22_3
*4746 FILLER_0_22_301
*4747 FILLER_0_22_307
*4748 FILLER_0_22_309
*4749 FILLER_0_22_321
*4750 FILLER_0_22_333
*4751 FILLER_0_22_345
*4752 FILLER_0_22_357
*4753 FILLER_0_22_363
*4754 FILLER_0_22_365
*4755 FILLER_0_22_377
*4756 FILLER_0_22_389
*4757 FILLER_0_22_401
*4758 FILLER_0_22_41
*4759 FILLER_0_22_413
*4760 FILLER_0_22_419
*4761 FILLER_0_22_421
*4762 FILLER_0_22_433
*4763 FILLER_0_22_445
*4764 FILLER_0_22_457
*4765 FILLER_0_22_469
*4766 FILLER_0_22_475
*4767 FILLER_0_22_477
*4768 FILLER_0_22_489
*4769 FILLER_0_22_501
*4770 FILLER_0_22_513
*4771 FILLER_0_22_525
*4772 FILLER_0_22_53
*4773 FILLER_0_22_531
*4774 FILLER_0_22_533
*4775 FILLER_0_22_545
*4776 FILLER_0_22_557
*4777 FILLER_0_22_569
*4778 FILLER_0_22_581
*4779 FILLER_0_22_587
*4780 FILLER_0_22_589
*4781 FILLER_0_22_601
*4782 FILLER_0_22_613
*4783 FILLER_0_22_625
*4784 FILLER_0_22_637
*4785 FILLER_0_22_643
*4786 FILLER_0_22_645
*4787 FILLER_0_22_65
*4788 FILLER_0_22_657
*4789 FILLER_0_22_669
*4790 FILLER_0_22_681
*4791 FILLER_0_22_693
*4792 FILLER_0_22_699
*4793 FILLER_0_22_701
*4794 FILLER_0_22_713
*4795 FILLER_0_22_725
*4796 FILLER_0_22_737
*4797 FILLER_0_22_749
*4798 FILLER_0_22_755
*4799 FILLER_0_22_757
*4800 FILLER_0_22_769
*4801 FILLER_0_22_77
*4802 FILLER_0_22_781
*4803 FILLER_0_22_793
*4804 FILLER_0_22_805
*4805 FILLER_0_22_811
*4806 FILLER_0_22_813
*4807 FILLER_0_22_821
*4808 FILLER_0_22_83
*4809 FILLER_0_22_85
*4810 FILLER_0_22_97
*4811 FILLER_0_23_105
*4812 FILLER_0_23_111
*4813 FILLER_0_23_113
*4814 FILLER_0_23_125
*4815 FILLER_0_23_137
*4816 FILLER_0_23_149
*4817 FILLER_0_23_15
*4818 FILLER_0_23_161
*4819 FILLER_0_23_167
*4820 FILLER_0_23_169
*4821 FILLER_0_23_181
*4822 FILLER_0_23_193
*4823 FILLER_0_23_205
*4824 FILLER_0_23_217
*4825 FILLER_0_23_223
*4826 FILLER_0_23_225
*4827 FILLER_0_23_237
*4828 FILLER_0_23_249
*4829 FILLER_0_23_261
*4830 FILLER_0_23_27
*4831 FILLER_0_23_273
*4832 FILLER_0_23_279
*4833 FILLER_0_23_281
*4834 FILLER_0_23_293
*4835 FILLER_0_23_3
*4836 FILLER_0_23_305
*4837 FILLER_0_23_317
*4838 FILLER_0_23_329
*4839 FILLER_0_23_335
*4840 FILLER_0_23_337
*4841 FILLER_0_23_349
*4842 FILLER_0_23_361
*4843 FILLER_0_23_373
*4844 FILLER_0_23_385
*4845 FILLER_0_23_39
*4846 FILLER_0_23_391
*4847 FILLER_0_23_393
*4848 FILLER_0_23_405
*4849 FILLER_0_23_417
*4850 FILLER_0_23_429
*4851 FILLER_0_23_441
*4852 FILLER_0_23_447
*4853 FILLER_0_23_449
*4854 FILLER_0_23_461
*4855 FILLER_0_23_473
*4856 FILLER_0_23_485
*4857 FILLER_0_23_497
*4858 FILLER_0_23_503
*4859 FILLER_0_23_505
*4860 FILLER_0_23_51
*4861 FILLER_0_23_517
*4862 FILLER_0_23_529
*4863 FILLER_0_23_541
*4864 FILLER_0_23_55
*4865 FILLER_0_23_553
*4866 FILLER_0_23_559
*4867 FILLER_0_23_561
*4868 FILLER_0_23_57
*4869 FILLER_0_23_573
*4870 FILLER_0_23_585
*4871 FILLER_0_23_597
*4872 FILLER_0_23_609
*4873 FILLER_0_23_615
*4874 FILLER_0_23_617
*4875 FILLER_0_23_629
*4876 FILLER_0_23_641
*4877 FILLER_0_23_653
*4878 FILLER_0_23_665
*4879 FILLER_0_23_671
*4880 FILLER_0_23_673
*4881 FILLER_0_23_685
*4882 FILLER_0_23_69
*4883 FILLER_0_23_697
*4884 FILLER_0_23_709
*4885 FILLER_0_23_721
*4886 FILLER_0_23_727
*4887 FILLER_0_23_729
*4888 FILLER_0_23_741
*4889 FILLER_0_23_753
*4890 FILLER_0_23_765
*4891 FILLER_0_23_777
*4892 FILLER_0_23_783
*4893 FILLER_0_23_785
*4894 FILLER_0_23_797
*4895 FILLER_0_23_809
*4896 FILLER_0_23_81
*4897 FILLER_0_23_821
*4898 FILLER_0_23_93
*4899 FILLER_0_24_109
*4900 FILLER_0_24_121
*4901 FILLER_0_24_133
*4902 FILLER_0_24_139
*4903 FILLER_0_24_141
*4904 FILLER_0_24_15
*4905 FILLER_0_24_153
*4906 FILLER_0_24_165
*4907 FILLER_0_24_177
*4908 FILLER_0_24_189
*4909 FILLER_0_24_195
*4910 FILLER_0_24_197
*4911 FILLER_0_24_209
*4912 FILLER_0_24_221
*4913 FILLER_0_24_233
*4914 FILLER_0_24_245
*4915 FILLER_0_24_251
*4916 FILLER_0_24_253
*4917 FILLER_0_24_265
*4918 FILLER_0_24_27
*4919 FILLER_0_24_277
*4920 FILLER_0_24_289
*4921 FILLER_0_24_29
*4922 FILLER_0_24_3
*4923 FILLER_0_24_301
*4924 FILLER_0_24_307
*4925 FILLER_0_24_309
*4926 FILLER_0_24_321
*4927 FILLER_0_24_333
*4928 FILLER_0_24_345
*4929 FILLER_0_24_357
*4930 FILLER_0_24_363
*4931 FILLER_0_24_365
*4932 FILLER_0_24_377
*4933 FILLER_0_24_389
*4934 FILLER_0_24_401
*4935 FILLER_0_24_41
*4936 FILLER_0_24_413
*4937 FILLER_0_24_419
*4938 FILLER_0_24_421
*4939 FILLER_0_24_433
*4940 FILLER_0_24_445
*4941 FILLER_0_24_457
*4942 FILLER_0_24_469
*4943 FILLER_0_24_475
*4944 FILLER_0_24_477
*4945 FILLER_0_24_489
*4946 FILLER_0_24_501
*4947 FILLER_0_24_513
*4948 FILLER_0_24_525
*4949 FILLER_0_24_53
*4950 FILLER_0_24_531
*4951 FILLER_0_24_533
*4952 FILLER_0_24_545
*4953 FILLER_0_24_557
*4954 FILLER_0_24_569
*4955 FILLER_0_24_581
*4956 FILLER_0_24_587
*4957 FILLER_0_24_589
*4958 FILLER_0_24_601
*4959 FILLER_0_24_613
*4960 FILLER_0_24_625
*4961 FILLER_0_24_637
*4962 FILLER_0_24_643
*4963 FILLER_0_24_645
*4964 FILLER_0_24_65
*4965 FILLER_0_24_657
*4966 FILLER_0_24_669
*4967 FILLER_0_24_681
*4968 FILLER_0_24_693
*4969 FILLER_0_24_699
*4970 FILLER_0_24_701
*4971 FILLER_0_24_713
*4972 FILLER_0_24_725
*4973 FILLER_0_24_737
*4974 FILLER_0_24_749
*4975 FILLER_0_24_755
*4976 FILLER_0_24_757
*4977 FILLER_0_24_769
*4978 FILLER_0_24_77
*4979 FILLER_0_24_781
*4980 FILLER_0_24_793
*4981 FILLER_0_24_805
*4982 FILLER_0_24_811
*4983 FILLER_0_24_813
*4984 FILLER_0_24_821
*4985 FILLER_0_24_83
*4986 FILLER_0_24_85
*4987 FILLER_0_24_97
*4988 FILLER_0_25_105
*4989 FILLER_0_25_111
*4990 FILLER_0_25_113
*4991 FILLER_0_25_125
*4992 FILLER_0_25_137
*4993 FILLER_0_25_149
*4994 FILLER_0_25_15
*4995 FILLER_0_25_161
*4996 FILLER_0_25_167
*4997 FILLER_0_25_169
*4998 FILLER_0_25_181
*4999 FILLER_0_25_193
*5000 FILLER_0_25_205
*5001 FILLER_0_25_217
*5002 FILLER_0_25_223
*5003 FILLER_0_25_225
*5004 FILLER_0_25_237
*5005 FILLER_0_25_249
*5006 FILLER_0_25_261
*5007 FILLER_0_25_27
*5008 FILLER_0_25_273
*5009 FILLER_0_25_279
*5010 FILLER_0_25_281
*5011 FILLER_0_25_293
*5012 FILLER_0_25_3
*5013 FILLER_0_25_305
*5014 FILLER_0_25_317
*5015 FILLER_0_25_329
*5016 FILLER_0_25_335
*5017 FILLER_0_25_337
*5018 FILLER_0_25_349
*5019 FILLER_0_25_361
*5020 FILLER_0_25_373
*5021 FILLER_0_25_385
*5022 FILLER_0_25_39
*5023 FILLER_0_25_391
*5024 FILLER_0_25_393
*5025 FILLER_0_25_405
*5026 FILLER_0_25_417
*5027 FILLER_0_25_429
*5028 FILLER_0_25_441
*5029 FILLER_0_25_447
*5030 FILLER_0_25_449
*5031 FILLER_0_25_461
*5032 FILLER_0_25_473
*5033 FILLER_0_25_485
*5034 FILLER_0_25_497
*5035 FILLER_0_25_503
*5036 FILLER_0_25_505
*5037 FILLER_0_25_51
*5038 FILLER_0_25_517
*5039 FILLER_0_25_529
*5040 FILLER_0_25_541
*5041 FILLER_0_25_55
*5042 FILLER_0_25_553
*5043 FILLER_0_25_559
*5044 FILLER_0_25_561
*5045 FILLER_0_25_57
*5046 FILLER_0_25_573
*5047 FILLER_0_25_585
*5048 FILLER_0_25_597
*5049 FILLER_0_25_609
*5050 FILLER_0_25_615
*5051 FILLER_0_25_617
*5052 FILLER_0_25_629
*5053 FILLER_0_25_641
*5054 FILLER_0_25_653
*5055 FILLER_0_25_665
*5056 FILLER_0_25_671
*5057 FILLER_0_25_673
*5058 FILLER_0_25_685
*5059 FILLER_0_25_69
*5060 FILLER_0_25_697
*5061 FILLER_0_25_709
*5062 FILLER_0_25_721
*5063 FILLER_0_25_727
*5064 FILLER_0_25_729
*5065 FILLER_0_25_741
*5066 FILLER_0_25_753
*5067 FILLER_0_25_765
*5068 FILLER_0_25_777
*5069 FILLER_0_25_783
*5070 FILLER_0_25_785
*5071 FILLER_0_25_797
*5072 FILLER_0_25_809
*5073 FILLER_0_25_81
*5074 FILLER_0_25_821
*5075 FILLER_0_25_93
*5076 FILLER_0_26_109
*5077 FILLER_0_26_121
*5078 FILLER_0_26_133
*5079 FILLER_0_26_139
*5080 FILLER_0_26_141
*5081 FILLER_0_26_15
*5082 FILLER_0_26_153
*5083 FILLER_0_26_165
*5084 FILLER_0_26_177
*5085 FILLER_0_26_189
*5086 FILLER_0_26_195
*5087 FILLER_0_26_197
*5088 FILLER_0_26_209
*5089 FILLER_0_26_221
*5090 FILLER_0_26_233
*5091 FILLER_0_26_245
*5092 FILLER_0_26_251
*5093 FILLER_0_26_253
*5094 FILLER_0_26_265
*5095 FILLER_0_26_27
*5096 FILLER_0_26_277
*5097 FILLER_0_26_289
*5098 FILLER_0_26_29
*5099 FILLER_0_26_3
*5100 FILLER_0_26_301
*5101 FILLER_0_26_307
*5102 FILLER_0_26_309
*5103 FILLER_0_26_321
*5104 FILLER_0_26_333
*5105 FILLER_0_26_345
*5106 FILLER_0_26_357
*5107 FILLER_0_26_363
*5108 FILLER_0_26_365
*5109 FILLER_0_26_377
*5110 FILLER_0_26_389
*5111 FILLER_0_26_401
*5112 FILLER_0_26_41
*5113 FILLER_0_26_413
*5114 FILLER_0_26_419
*5115 FILLER_0_26_421
*5116 FILLER_0_26_433
*5117 FILLER_0_26_445
*5118 FILLER_0_26_457
*5119 FILLER_0_26_469
*5120 FILLER_0_26_475
*5121 FILLER_0_26_477
*5122 FILLER_0_26_489
*5123 FILLER_0_26_501
*5124 FILLER_0_26_513
*5125 FILLER_0_26_525
*5126 FILLER_0_26_53
*5127 FILLER_0_26_531
*5128 FILLER_0_26_533
*5129 FILLER_0_26_545
*5130 FILLER_0_26_557
*5131 FILLER_0_26_569
*5132 FILLER_0_26_581
*5133 FILLER_0_26_587
*5134 FILLER_0_26_589
*5135 FILLER_0_26_601
*5136 FILLER_0_26_613
*5137 FILLER_0_26_625
*5138 FILLER_0_26_637
*5139 FILLER_0_26_643
*5140 FILLER_0_26_645
*5141 FILLER_0_26_65
*5142 FILLER_0_26_657
*5143 FILLER_0_26_669
*5144 FILLER_0_26_681
*5145 FILLER_0_26_693
*5146 FILLER_0_26_699
*5147 FILLER_0_26_701
*5148 FILLER_0_26_713
*5149 FILLER_0_26_725
*5150 FILLER_0_26_737
*5151 FILLER_0_26_749
*5152 FILLER_0_26_755
*5153 FILLER_0_26_757
*5154 FILLER_0_26_769
*5155 FILLER_0_26_77
*5156 FILLER_0_26_781
*5157 FILLER_0_26_793
*5158 FILLER_0_26_805
*5159 FILLER_0_26_811
*5160 FILLER_0_26_813
*5161 FILLER_0_26_821
*5162 FILLER_0_26_83
*5163 FILLER_0_26_85
*5164 FILLER_0_26_97
*5165 FILLER_0_27_105
*5166 FILLER_0_27_111
*5167 FILLER_0_27_113
*5168 FILLER_0_27_125
*5169 FILLER_0_27_137
*5170 FILLER_0_27_149
*5171 FILLER_0_27_15
*5172 FILLER_0_27_161
*5173 FILLER_0_27_167
*5174 FILLER_0_27_169
*5175 FILLER_0_27_181
*5176 FILLER_0_27_193
*5177 FILLER_0_27_205
*5178 FILLER_0_27_217
*5179 FILLER_0_27_223
*5180 FILLER_0_27_225
*5181 FILLER_0_27_237
*5182 FILLER_0_27_249
*5183 FILLER_0_27_261
*5184 FILLER_0_27_27
*5185 FILLER_0_27_273
*5186 FILLER_0_27_279
*5187 FILLER_0_27_281
*5188 FILLER_0_27_293
*5189 FILLER_0_27_3
*5190 FILLER_0_27_305
*5191 FILLER_0_27_317
*5192 FILLER_0_27_329
*5193 FILLER_0_27_335
*5194 FILLER_0_27_337
*5195 FILLER_0_27_349
*5196 FILLER_0_27_361
*5197 FILLER_0_27_373
*5198 FILLER_0_27_385
*5199 FILLER_0_27_39
*5200 FILLER_0_27_391
*5201 FILLER_0_27_393
*5202 FILLER_0_27_405
*5203 FILLER_0_27_417
*5204 FILLER_0_27_429
*5205 FILLER_0_27_441
*5206 FILLER_0_27_447
*5207 FILLER_0_27_449
*5208 FILLER_0_27_461
*5209 FILLER_0_27_473
*5210 FILLER_0_27_485
*5211 FILLER_0_27_497
*5212 FILLER_0_27_503
*5213 FILLER_0_27_505
*5214 FILLER_0_27_51
*5215 FILLER_0_27_517
*5216 FILLER_0_27_529
*5217 FILLER_0_27_541
*5218 FILLER_0_27_55
*5219 FILLER_0_27_553
*5220 FILLER_0_27_559
*5221 FILLER_0_27_561
*5222 FILLER_0_27_57
*5223 FILLER_0_27_573
*5224 FILLER_0_27_585
*5225 FILLER_0_27_597
*5226 FILLER_0_27_609
*5227 FILLER_0_27_615
*5228 FILLER_0_27_617
*5229 FILLER_0_27_629
*5230 FILLER_0_27_641
*5231 FILLER_0_27_653
*5232 FILLER_0_27_665
*5233 FILLER_0_27_671
*5234 FILLER_0_27_673
*5235 FILLER_0_27_685
*5236 FILLER_0_27_69
*5237 FILLER_0_27_697
*5238 FILLER_0_27_709
*5239 FILLER_0_27_721
*5240 FILLER_0_27_727
*5241 FILLER_0_27_729
*5242 FILLER_0_27_741
*5243 FILLER_0_27_753
*5244 FILLER_0_27_765
*5245 FILLER_0_27_777
*5246 FILLER_0_27_783
*5247 FILLER_0_27_785
*5248 FILLER_0_27_797
*5249 FILLER_0_27_809
*5250 FILLER_0_27_81
*5251 FILLER_0_27_817
*5252 FILLER_0_27_93
*5253 FILLER_0_28_109
*5254 FILLER_0_28_121
*5255 FILLER_0_28_133
*5256 FILLER_0_28_139
*5257 FILLER_0_28_141
*5258 FILLER_0_28_15
*5259 FILLER_0_28_153
*5260 FILLER_0_28_165
*5261 FILLER_0_28_177
*5262 FILLER_0_28_189
*5263 FILLER_0_28_195
*5264 FILLER_0_28_197
*5265 FILLER_0_28_209
*5266 FILLER_0_28_221
*5267 FILLER_0_28_233
*5268 FILLER_0_28_245
*5269 FILLER_0_28_251
*5270 FILLER_0_28_253
*5271 FILLER_0_28_265
*5272 FILLER_0_28_27
*5273 FILLER_0_28_277
*5274 FILLER_0_28_289
*5275 FILLER_0_28_29
*5276 FILLER_0_28_3
*5277 FILLER_0_28_301
*5278 FILLER_0_28_307
*5279 FILLER_0_28_309
*5280 FILLER_0_28_321
*5281 FILLER_0_28_333
*5282 FILLER_0_28_345
*5283 FILLER_0_28_357
*5284 FILLER_0_28_363
*5285 FILLER_0_28_365
*5286 FILLER_0_28_377
*5287 FILLER_0_28_389
*5288 FILLER_0_28_401
*5289 FILLER_0_28_41
*5290 FILLER_0_28_413
*5291 FILLER_0_28_419
*5292 FILLER_0_28_421
*5293 FILLER_0_28_433
*5294 FILLER_0_28_445
*5295 FILLER_0_28_457
*5296 FILLER_0_28_469
*5297 FILLER_0_28_475
*5298 FILLER_0_28_477
*5299 FILLER_0_28_489
*5300 FILLER_0_28_501
*5301 FILLER_0_28_513
*5302 FILLER_0_28_525
*5303 FILLER_0_28_53
*5304 FILLER_0_28_531
*5305 FILLER_0_28_533
*5306 FILLER_0_28_545
*5307 FILLER_0_28_557
*5308 FILLER_0_28_569
*5309 FILLER_0_28_581
*5310 FILLER_0_28_587
*5311 FILLER_0_28_589
*5312 FILLER_0_28_601
*5313 FILLER_0_28_613
*5314 FILLER_0_28_625
*5315 FILLER_0_28_637
*5316 FILLER_0_28_643
*5317 FILLER_0_28_645
*5318 FILLER_0_28_65
*5319 FILLER_0_28_657
*5320 FILLER_0_28_669
*5321 FILLER_0_28_681
*5322 FILLER_0_28_693
*5323 FILLER_0_28_699
*5324 FILLER_0_28_701
*5325 FILLER_0_28_713
*5326 FILLER_0_28_725
*5327 FILLER_0_28_737
*5328 FILLER_0_28_749
*5329 FILLER_0_28_755
*5330 FILLER_0_28_757
*5331 FILLER_0_28_769
*5332 FILLER_0_28_77
*5333 FILLER_0_28_781
*5334 FILLER_0_28_793
*5335 FILLER_0_28_805
*5336 FILLER_0_28_811
*5337 FILLER_0_28_813
*5338 FILLER_0_28_821
*5339 FILLER_0_28_83
*5340 FILLER_0_28_85
*5341 FILLER_0_28_97
*5342 FILLER_0_29_105
*5343 FILLER_0_29_111
*5344 FILLER_0_29_113
*5345 FILLER_0_29_125
*5346 FILLER_0_29_137
*5347 FILLER_0_29_149
*5348 FILLER_0_29_15
*5349 FILLER_0_29_161
*5350 FILLER_0_29_167
*5351 FILLER_0_29_169
*5352 FILLER_0_29_181
*5353 FILLER_0_29_193
*5354 FILLER_0_29_205
*5355 FILLER_0_29_217
*5356 FILLER_0_29_223
*5357 FILLER_0_29_225
*5358 FILLER_0_29_237
*5359 FILLER_0_29_249
*5360 FILLER_0_29_261
*5361 FILLER_0_29_27
*5362 FILLER_0_29_273
*5363 FILLER_0_29_279
*5364 FILLER_0_29_281
*5365 FILLER_0_29_293
*5366 FILLER_0_29_3
*5367 FILLER_0_29_305
*5368 FILLER_0_29_317
*5369 FILLER_0_29_329
*5370 FILLER_0_29_335
*5371 FILLER_0_29_337
*5372 FILLER_0_29_349
*5373 FILLER_0_29_361
*5374 FILLER_0_29_373
*5375 FILLER_0_29_385
*5376 FILLER_0_29_39
*5377 FILLER_0_29_391
*5378 FILLER_0_29_393
*5379 FILLER_0_29_405
*5380 FILLER_0_29_417
*5381 FILLER_0_29_429
*5382 FILLER_0_29_441
*5383 FILLER_0_29_447
*5384 FILLER_0_29_449
*5385 FILLER_0_29_461
*5386 FILLER_0_29_473
*5387 FILLER_0_29_485
*5388 FILLER_0_29_497
*5389 FILLER_0_29_503
*5390 FILLER_0_29_505
*5391 FILLER_0_29_51
*5392 FILLER_0_29_517
*5393 FILLER_0_29_529
*5394 FILLER_0_29_541
*5395 FILLER_0_29_55
*5396 FILLER_0_29_553
*5397 FILLER_0_29_559
*5398 FILLER_0_29_561
*5399 FILLER_0_29_57
*5400 FILLER_0_29_573
*5401 FILLER_0_29_585
*5402 FILLER_0_29_597
*5403 FILLER_0_29_609
*5404 FILLER_0_29_615
*5405 FILLER_0_29_617
*5406 FILLER_0_29_629
*5407 FILLER_0_29_641
*5408 FILLER_0_29_653
*5409 FILLER_0_29_665
*5410 FILLER_0_29_671
*5411 FILLER_0_29_673
*5412 FILLER_0_29_685
*5413 FILLER_0_29_69
*5414 FILLER_0_29_697
*5415 FILLER_0_29_709
*5416 FILLER_0_29_721
*5417 FILLER_0_29_727
*5418 FILLER_0_29_729
*5419 FILLER_0_29_741
*5420 FILLER_0_29_753
*5421 FILLER_0_29_765
*5422 FILLER_0_29_777
*5423 FILLER_0_29_783
*5424 FILLER_0_29_785
*5425 FILLER_0_29_797
*5426 FILLER_0_29_809
*5427 FILLER_0_29_81
*5428 FILLER_0_29_821
*5429 FILLER_0_29_93
*5430 FILLER_0_2_109
*5431 FILLER_0_2_121
*5432 FILLER_0_2_133
*5433 FILLER_0_2_139
*5434 FILLER_0_2_141
*5435 FILLER_0_2_15
*5436 FILLER_0_2_153
*5437 FILLER_0_2_165
*5438 FILLER_0_2_177
*5439 FILLER_0_2_189
*5440 FILLER_0_2_195
*5441 FILLER_0_2_197
*5442 FILLER_0_2_209
*5443 FILLER_0_2_221
*5444 FILLER_0_2_233
*5445 FILLER_0_2_245
*5446 FILLER_0_2_251
*5447 FILLER_0_2_253
*5448 FILLER_0_2_265
*5449 FILLER_0_2_27
*5450 FILLER_0_2_277
*5451 FILLER_0_2_289
*5452 FILLER_0_2_29
*5453 FILLER_0_2_3
*5454 FILLER_0_2_301
*5455 FILLER_0_2_307
*5456 FILLER_0_2_309
*5457 FILLER_0_2_315
*5458 FILLER_0_2_326
*5459 FILLER_0_2_338
*5460 FILLER_0_2_350
*5461 FILLER_0_2_362
*5462 FILLER_0_2_365
*5463 FILLER_0_2_377
*5464 FILLER_0_2_389
*5465 FILLER_0_2_401
*5466 FILLER_0_2_41
*5467 FILLER_0_2_413
*5468 FILLER_0_2_419
*5469 FILLER_0_2_421
*5470 FILLER_0_2_433
*5471 FILLER_0_2_445
*5472 FILLER_0_2_457
*5473 FILLER_0_2_469
*5474 FILLER_0_2_475
*5475 FILLER_0_2_477
*5476 FILLER_0_2_489
*5477 FILLER_0_2_501
*5478 FILLER_0_2_513
*5479 FILLER_0_2_525
*5480 FILLER_0_2_53
*5481 FILLER_0_2_531
*5482 FILLER_0_2_533
*5483 FILLER_0_2_545
*5484 FILLER_0_2_557
*5485 FILLER_0_2_569
*5486 FILLER_0_2_581
*5487 FILLER_0_2_587
*5488 FILLER_0_2_589
*5489 FILLER_0_2_601
*5490 FILLER_0_2_613
*5491 FILLER_0_2_625
*5492 FILLER_0_2_637
*5493 FILLER_0_2_643
*5494 FILLER_0_2_645
*5495 FILLER_0_2_65
*5496 FILLER_0_2_657
*5497 FILLER_0_2_669
*5498 FILLER_0_2_681
*5499 FILLER_0_2_693
*5500 FILLER_0_2_699
*5501 FILLER_0_2_701
*5502 FILLER_0_2_713
*5503 FILLER_0_2_725
*5504 FILLER_0_2_737
*5505 FILLER_0_2_749
*5506 FILLER_0_2_755
*5507 FILLER_0_2_757
*5508 FILLER_0_2_769
*5509 FILLER_0_2_77
*5510 FILLER_0_2_781
*5511 FILLER_0_2_793
*5512 FILLER_0_2_805
*5513 FILLER_0_2_811
*5514 FILLER_0_2_813
*5515 FILLER_0_2_821
*5516 FILLER_0_2_83
*5517 FILLER_0_2_85
*5518 FILLER_0_2_97
*5519 FILLER_0_30_109
*5520 FILLER_0_30_121
*5521 FILLER_0_30_133
*5522 FILLER_0_30_139
*5523 FILLER_0_30_141
*5524 FILLER_0_30_15
*5525 FILLER_0_30_153
*5526 FILLER_0_30_165
*5527 FILLER_0_30_177
*5528 FILLER_0_30_189
*5529 FILLER_0_30_195
*5530 FILLER_0_30_197
*5531 FILLER_0_30_209
*5532 FILLER_0_30_221
*5533 FILLER_0_30_233
*5534 FILLER_0_30_245
*5535 FILLER_0_30_251
*5536 FILLER_0_30_253
*5537 FILLER_0_30_265
*5538 FILLER_0_30_27
*5539 FILLER_0_30_277
*5540 FILLER_0_30_289
*5541 FILLER_0_30_29
*5542 FILLER_0_30_3
*5543 FILLER_0_30_301
*5544 FILLER_0_30_307
*5545 FILLER_0_30_309
*5546 FILLER_0_30_321
*5547 FILLER_0_30_333
*5548 FILLER_0_30_345
*5549 FILLER_0_30_357
*5550 FILLER_0_30_363
*5551 FILLER_0_30_365
*5552 FILLER_0_30_377
*5553 FILLER_0_30_389
*5554 FILLER_0_30_401
*5555 FILLER_0_30_41
*5556 FILLER_0_30_413
*5557 FILLER_0_30_419
*5558 FILLER_0_30_421
*5559 FILLER_0_30_433
*5560 FILLER_0_30_445
*5561 FILLER_0_30_457
*5562 FILLER_0_30_469
*5563 FILLER_0_30_475
*5564 FILLER_0_30_477
*5565 FILLER_0_30_489
*5566 FILLER_0_30_501
*5567 FILLER_0_30_513
*5568 FILLER_0_30_525
*5569 FILLER_0_30_53
*5570 FILLER_0_30_531
*5571 FILLER_0_30_533
*5572 FILLER_0_30_545
*5573 FILLER_0_30_557
*5574 FILLER_0_30_569
*5575 FILLER_0_30_581
*5576 FILLER_0_30_587
*5577 FILLER_0_30_589
*5578 FILLER_0_30_601
*5579 FILLER_0_30_613
*5580 FILLER_0_30_625
*5581 FILLER_0_30_637
*5582 FILLER_0_30_643
*5583 FILLER_0_30_645
*5584 FILLER_0_30_65
*5585 FILLER_0_30_657
*5586 FILLER_0_30_669
*5587 FILLER_0_30_681
*5588 FILLER_0_30_693
*5589 FILLER_0_30_699
*5590 FILLER_0_30_701
*5591 FILLER_0_30_713
*5592 FILLER_0_30_725
*5593 FILLER_0_30_737
*5594 FILLER_0_30_749
*5595 FILLER_0_30_755
*5596 FILLER_0_30_757
*5597 FILLER_0_30_769
*5598 FILLER_0_30_77
*5599 FILLER_0_30_781
*5600 FILLER_0_30_793
*5601 FILLER_0_30_805
*5602 FILLER_0_30_811
*5603 FILLER_0_30_813
*5604 FILLER_0_30_821
*5605 FILLER_0_30_83
*5606 FILLER_0_30_85
*5607 FILLER_0_30_97
*5608 FILLER_0_31_105
*5609 FILLER_0_31_111
*5610 FILLER_0_31_113
*5611 FILLER_0_31_125
*5612 FILLER_0_31_137
*5613 FILLER_0_31_149
*5614 FILLER_0_31_15
*5615 FILLER_0_31_161
*5616 FILLER_0_31_167
*5617 FILLER_0_31_169
*5618 FILLER_0_31_181
*5619 FILLER_0_31_193
*5620 FILLER_0_31_205
*5621 FILLER_0_31_217
*5622 FILLER_0_31_223
*5623 FILLER_0_31_225
*5624 FILLER_0_31_237
*5625 FILLER_0_31_249
*5626 FILLER_0_31_261
*5627 FILLER_0_31_27
*5628 FILLER_0_31_273
*5629 FILLER_0_31_279
*5630 FILLER_0_31_281
*5631 FILLER_0_31_293
*5632 FILLER_0_31_3
*5633 FILLER_0_31_305
*5634 FILLER_0_31_317
*5635 FILLER_0_31_329
*5636 FILLER_0_31_335
*5637 FILLER_0_31_337
*5638 FILLER_0_31_349
*5639 FILLER_0_31_361
*5640 FILLER_0_31_373
*5641 FILLER_0_31_385
*5642 FILLER_0_31_39
*5643 FILLER_0_31_391
*5644 FILLER_0_31_393
*5645 FILLER_0_31_405
*5646 FILLER_0_31_417
*5647 FILLER_0_31_429
*5648 FILLER_0_31_441
*5649 FILLER_0_31_447
*5650 FILLER_0_31_449
*5651 FILLER_0_31_461
*5652 FILLER_0_31_473
*5653 FILLER_0_31_485
*5654 FILLER_0_31_497
*5655 FILLER_0_31_503
*5656 FILLER_0_31_505
*5657 FILLER_0_31_51
*5658 FILLER_0_31_517
*5659 FILLER_0_31_529
*5660 FILLER_0_31_541
*5661 FILLER_0_31_55
*5662 FILLER_0_31_553
*5663 FILLER_0_31_559
*5664 FILLER_0_31_561
*5665 FILLER_0_31_57
*5666 FILLER_0_31_573
*5667 FILLER_0_31_585
*5668 FILLER_0_31_597
*5669 FILLER_0_31_609
*5670 FILLER_0_31_615
*5671 FILLER_0_31_617
*5672 FILLER_0_31_629
*5673 FILLER_0_31_641
*5674 FILLER_0_31_653
*5675 FILLER_0_31_665
*5676 FILLER_0_31_671
*5677 FILLER_0_31_673
*5678 FILLER_0_31_685
*5679 FILLER_0_31_69
*5680 FILLER_0_31_697
*5681 FILLER_0_31_709
*5682 FILLER_0_31_721
*5683 FILLER_0_31_727
*5684 FILLER_0_31_729
*5685 FILLER_0_31_741
*5686 FILLER_0_31_753
*5687 FILLER_0_31_765
*5688 FILLER_0_31_777
*5689 FILLER_0_31_783
*5690 FILLER_0_31_785
*5691 FILLER_0_31_797
*5692 FILLER_0_31_809
*5693 FILLER_0_31_81
*5694 FILLER_0_31_821
*5695 FILLER_0_31_93
*5696 FILLER_0_32_109
*5697 FILLER_0_32_121
*5698 FILLER_0_32_133
*5699 FILLER_0_32_139
*5700 FILLER_0_32_141
*5701 FILLER_0_32_15
*5702 FILLER_0_32_153
*5703 FILLER_0_32_165
*5704 FILLER_0_32_177
*5705 FILLER_0_32_189
*5706 FILLER_0_32_195
*5707 FILLER_0_32_197
*5708 FILLER_0_32_209
*5709 FILLER_0_32_221
*5710 FILLER_0_32_233
*5711 FILLER_0_32_245
*5712 FILLER_0_32_251
*5713 FILLER_0_32_253
*5714 FILLER_0_32_265
*5715 FILLER_0_32_27
*5716 FILLER_0_32_277
*5717 FILLER_0_32_289
*5718 FILLER_0_32_29
*5719 FILLER_0_32_3
*5720 FILLER_0_32_301
*5721 FILLER_0_32_307
*5722 FILLER_0_32_309
*5723 FILLER_0_32_321
*5724 FILLER_0_32_333
*5725 FILLER_0_32_345
*5726 FILLER_0_32_357
*5727 FILLER_0_32_363
*5728 FILLER_0_32_365
*5729 FILLER_0_32_377
*5730 FILLER_0_32_389
*5731 FILLER_0_32_401
*5732 FILLER_0_32_41
*5733 FILLER_0_32_413
*5734 FILLER_0_32_419
*5735 FILLER_0_32_421
*5736 FILLER_0_32_433
*5737 FILLER_0_32_445
*5738 FILLER_0_32_457
*5739 FILLER_0_32_469
*5740 FILLER_0_32_475
*5741 FILLER_0_32_477
*5742 FILLER_0_32_489
*5743 FILLER_0_32_501
*5744 FILLER_0_32_513
*5745 FILLER_0_32_525
*5746 FILLER_0_32_53
*5747 FILLER_0_32_531
*5748 FILLER_0_32_533
*5749 FILLER_0_32_545
*5750 FILLER_0_32_557
*5751 FILLER_0_32_569
*5752 FILLER_0_32_581
*5753 FILLER_0_32_587
*5754 FILLER_0_32_589
*5755 FILLER_0_32_601
*5756 FILLER_0_32_613
*5757 FILLER_0_32_625
*5758 FILLER_0_32_637
*5759 FILLER_0_32_643
*5760 FILLER_0_32_645
*5761 FILLER_0_32_65
*5762 FILLER_0_32_657
*5763 FILLER_0_32_669
*5764 FILLER_0_32_681
*5765 FILLER_0_32_693
*5766 FILLER_0_32_699
*5767 FILLER_0_32_701
*5768 FILLER_0_32_713
*5769 FILLER_0_32_725
*5770 FILLER_0_32_737
*5771 FILLER_0_32_749
*5772 FILLER_0_32_755
*5773 FILLER_0_32_757
*5774 FILLER_0_32_769
*5775 FILLER_0_32_77
*5776 FILLER_0_32_781
*5777 FILLER_0_32_793
*5778 FILLER_0_32_805
*5779 FILLER_0_32_811
*5780 FILLER_0_32_813
*5781 FILLER_0_32_821
*5782 FILLER_0_32_83
*5783 FILLER_0_32_85
*5784 FILLER_0_32_97
*5785 FILLER_0_33_105
*5786 FILLER_0_33_111
*5787 FILLER_0_33_113
*5788 FILLER_0_33_125
*5789 FILLER_0_33_137
*5790 FILLER_0_33_149
*5791 FILLER_0_33_15
*5792 FILLER_0_33_161
*5793 FILLER_0_33_167
*5794 FILLER_0_33_169
*5795 FILLER_0_33_181
*5796 FILLER_0_33_193
*5797 FILLER_0_33_205
*5798 FILLER_0_33_217
*5799 FILLER_0_33_223
*5800 FILLER_0_33_225
*5801 FILLER_0_33_237
*5802 FILLER_0_33_249
*5803 FILLER_0_33_261
*5804 FILLER_0_33_27
*5805 FILLER_0_33_273
*5806 FILLER_0_33_279
*5807 FILLER_0_33_281
*5808 FILLER_0_33_293
*5809 FILLER_0_33_3
*5810 FILLER_0_33_305
*5811 FILLER_0_33_317
*5812 FILLER_0_33_329
*5813 FILLER_0_33_335
*5814 FILLER_0_33_337
*5815 FILLER_0_33_349
*5816 FILLER_0_33_361
*5817 FILLER_0_33_373
*5818 FILLER_0_33_385
*5819 FILLER_0_33_39
*5820 FILLER_0_33_391
*5821 FILLER_0_33_393
*5822 FILLER_0_33_405
*5823 FILLER_0_33_417
*5824 FILLER_0_33_429
*5825 FILLER_0_33_441
*5826 FILLER_0_33_447
*5827 FILLER_0_33_449
*5828 FILLER_0_33_461
*5829 FILLER_0_33_473
*5830 FILLER_0_33_485
*5831 FILLER_0_33_497
*5832 FILLER_0_33_503
*5833 FILLER_0_33_505
*5834 FILLER_0_33_51
*5835 FILLER_0_33_517
*5836 FILLER_0_33_529
*5837 FILLER_0_33_541
*5838 FILLER_0_33_55
*5839 FILLER_0_33_553
*5840 FILLER_0_33_559
*5841 FILLER_0_33_561
*5842 FILLER_0_33_57
*5843 FILLER_0_33_573
*5844 FILLER_0_33_585
*5845 FILLER_0_33_597
*5846 FILLER_0_33_609
*5847 FILLER_0_33_615
*5848 FILLER_0_33_617
*5849 FILLER_0_33_629
*5850 FILLER_0_33_641
*5851 FILLER_0_33_653
*5852 FILLER_0_33_665
*5853 FILLER_0_33_671
*5854 FILLER_0_33_673
*5855 FILLER_0_33_685
*5856 FILLER_0_33_69
*5857 FILLER_0_33_697
*5858 FILLER_0_33_709
*5859 FILLER_0_33_721
*5860 FILLER_0_33_727
*5861 FILLER_0_33_729
*5862 FILLER_0_33_741
*5863 FILLER_0_33_753
*5864 FILLER_0_33_765
*5865 FILLER_0_33_777
*5866 FILLER_0_33_783
*5867 FILLER_0_33_785
*5868 FILLER_0_33_797
*5869 FILLER_0_33_809
*5870 FILLER_0_33_81
*5871 FILLER_0_33_821
*5872 FILLER_0_33_93
*5873 FILLER_0_34_109
*5874 FILLER_0_34_121
*5875 FILLER_0_34_133
*5876 FILLER_0_34_139
*5877 FILLER_0_34_141
*5878 FILLER_0_34_15
*5879 FILLER_0_34_153
*5880 FILLER_0_34_165
*5881 FILLER_0_34_177
*5882 FILLER_0_34_189
*5883 FILLER_0_34_195
*5884 FILLER_0_34_197
*5885 FILLER_0_34_209
*5886 FILLER_0_34_221
*5887 FILLER_0_34_233
*5888 FILLER_0_34_245
*5889 FILLER_0_34_251
*5890 FILLER_0_34_253
*5891 FILLER_0_34_265
*5892 FILLER_0_34_27
*5893 FILLER_0_34_277
*5894 FILLER_0_34_289
*5895 FILLER_0_34_29
*5896 FILLER_0_34_3
*5897 FILLER_0_34_301
*5898 FILLER_0_34_307
*5899 FILLER_0_34_309
*5900 FILLER_0_34_321
*5901 FILLER_0_34_333
*5902 FILLER_0_34_345
*5903 FILLER_0_34_357
*5904 FILLER_0_34_363
*5905 FILLER_0_34_365
*5906 FILLER_0_34_377
*5907 FILLER_0_34_389
*5908 FILLER_0_34_401
*5909 FILLER_0_34_41
*5910 FILLER_0_34_413
*5911 FILLER_0_34_419
*5912 FILLER_0_34_421
*5913 FILLER_0_34_433
*5914 FILLER_0_34_445
*5915 FILLER_0_34_457
*5916 FILLER_0_34_469
*5917 FILLER_0_34_475
*5918 FILLER_0_34_477
*5919 FILLER_0_34_489
*5920 FILLER_0_34_501
*5921 FILLER_0_34_513
*5922 FILLER_0_34_525
*5923 FILLER_0_34_53
*5924 FILLER_0_34_531
*5925 FILLER_0_34_533
*5926 FILLER_0_34_545
*5927 FILLER_0_34_557
*5928 FILLER_0_34_569
*5929 FILLER_0_34_581
*5930 FILLER_0_34_587
*5931 FILLER_0_34_589
*5932 FILLER_0_34_601
*5933 FILLER_0_34_613
*5934 FILLER_0_34_625
*5935 FILLER_0_34_637
*5936 FILLER_0_34_643
*5937 FILLER_0_34_645
*5938 FILLER_0_34_65
*5939 FILLER_0_34_657
*5940 FILLER_0_34_669
*5941 FILLER_0_34_681
*5942 FILLER_0_34_693
*5943 FILLER_0_34_699
*5944 FILLER_0_34_701
*5945 FILLER_0_34_713
*5946 FILLER_0_34_725
*5947 FILLER_0_34_737
*5948 FILLER_0_34_749
*5949 FILLER_0_34_755
*5950 FILLER_0_34_757
*5951 FILLER_0_34_769
*5952 FILLER_0_34_77
*5953 FILLER_0_34_781
*5954 FILLER_0_34_793
*5955 FILLER_0_34_805
*5956 FILLER_0_34_811
*5957 FILLER_0_34_813
*5958 FILLER_0_34_821
*5959 FILLER_0_34_83
*5960 FILLER_0_34_85
*5961 FILLER_0_34_97
*5962 FILLER_0_35_105
*5963 FILLER_0_35_111
*5964 FILLER_0_35_113
*5965 FILLER_0_35_125
*5966 FILLER_0_35_137
*5967 FILLER_0_35_149
*5968 FILLER_0_35_15
*5969 FILLER_0_35_161
*5970 FILLER_0_35_167
*5971 FILLER_0_35_169
*5972 FILLER_0_35_181
*5973 FILLER_0_35_193
*5974 FILLER_0_35_205
*5975 FILLER_0_35_217
*5976 FILLER_0_35_223
*5977 FILLER_0_35_225
*5978 FILLER_0_35_237
*5979 FILLER_0_35_249
*5980 FILLER_0_35_261
*5981 FILLER_0_35_27
*5982 FILLER_0_35_273
*5983 FILLER_0_35_279
*5984 FILLER_0_35_281
*5985 FILLER_0_35_293
*5986 FILLER_0_35_3
*5987 FILLER_0_35_305
*5988 FILLER_0_35_317
*5989 FILLER_0_35_329
*5990 FILLER_0_35_335
*5991 FILLER_0_35_337
*5992 FILLER_0_35_349
*5993 FILLER_0_35_361
*5994 FILLER_0_35_373
*5995 FILLER_0_35_385
*5996 FILLER_0_35_39
*5997 FILLER_0_35_391
*5998 FILLER_0_35_393
*5999 FILLER_0_35_405
*6000 FILLER_0_35_417
*6001 FILLER_0_35_429
*6002 FILLER_0_35_441
*6003 FILLER_0_35_447
*6004 FILLER_0_35_449
*6005 FILLER_0_35_461
*6006 FILLER_0_35_473
*6007 FILLER_0_35_485
*6008 FILLER_0_35_497
*6009 FILLER_0_35_503
*6010 FILLER_0_35_505
*6011 FILLER_0_35_51
*6012 FILLER_0_35_517
*6013 FILLER_0_35_529
*6014 FILLER_0_35_541
*6015 FILLER_0_35_55
*6016 FILLER_0_35_553
*6017 FILLER_0_35_559
*6018 FILLER_0_35_561
*6019 FILLER_0_35_57
*6020 FILLER_0_35_573
*6021 FILLER_0_35_585
*6022 FILLER_0_35_597
*6023 FILLER_0_35_609
*6024 FILLER_0_35_615
*6025 FILLER_0_35_617
*6026 FILLER_0_35_629
*6027 FILLER_0_35_641
*6028 FILLER_0_35_653
*6029 FILLER_0_35_665
*6030 FILLER_0_35_671
*6031 FILLER_0_35_673
*6032 FILLER_0_35_685
*6033 FILLER_0_35_69
*6034 FILLER_0_35_697
*6035 FILLER_0_35_709
*6036 FILLER_0_35_721
*6037 FILLER_0_35_727
*6038 FILLER_0_35_729
*6039 FILLER_0_35_741
*6040 FILLER_0_35_753
*6041 FILLER_0_35_765
*6042 FILLER_0_35_777
*6043 FILLER_0_35_783
*6044 FILLER_0_35_785
*6045 FILLER_0_35_797
*6046 FILLER_0_35_809
*6047 FILLER_0_35_81
*6048 FILLER_0_35_821
*6049 FILLER_0_35_93
*6050 FILLER_0_36_109
*6051 FILLER_0_36_121
*6052 FILLER_0_36_133
*6053 FILLER_0_36_139
*6054 FILLER_0_36_141
*6055 FILLER_0_36_15
*6056 FILLER_0_36_153
*6057 FILLER_0_36_165
*6058 FILLER_0_36_177
*6059 FILLER_0_36_189
*6060 FILLER_0_36_195
*6061 FILLER_0_36_197
*6062 FILLER_0_36_209
*6063 FILLER_0_36_221
*6064 FILLER_0_36_233
*6065 FILLER_0_36_245
*6066 FILLER_0_36_251
*6067 FILLER_0_36_253
*6068 FILLER_0_36_265
*6069 FILLER_0_36_27
*6070 FILLER_0_36_277
*6071 FILLER_0_36_289
*6072 FILLER_0_36_29
*6073 FILLER_0_36_3
*6074 FILLER_0_36_301
*6075 FILLER_0_36_307
*6076 FILLER_0_36_309
*6077 FILLER_0_36_321
*6078 FILLER_0_36_333
*6079 FILLER_0_36_345
*6080 FILLER_0_36_357
*6081 FILLER_0_36_363
*6082 FILLER_0_36_365
*6083 FILLER_0_36_377
*6084 FILLER_0_36_389
*6085 FILLER_0_36_401
*6086 FILLER_0_36_41
*6087 FILLER_0_36_413
*6088 FILLER_0_36_419
*6089 FILLER_0_36_421
*6090 FILLER_0_36_433
*6091 FILLER_0_36_445
*6092 FILLER_0_36_457
*6093 FILLER_0_36_469
*6094 FILLER_0_36_475
*6095 FILLER_0_36_477
*6096 FILLER_0_36_489
*6097 FILLER_0_36_501
*6098 FILLER_0_36_513
*6099 FILLER_0_36_525
*6100 FILLER_0_36_53
*6101 FILLER_0_36_531
*6102 FILLER_0_36_533
*6103 FILLER_0_36_545
*6104 FILLER_0_36_557
*6105 FILLER_0_36_569
*6106 FILLER_0_36_581
*6107 FILLER_0_36_587
*6108 FILLER_0_36_589
*6109 FILLER_0_36_601
*6110 FILLER_0_36_613
*6111 FILLER_0_36_625
*6112 FILLER_0_36_637
*6113 FILLER_0_36_643
*6114 FILLER_0_36_645
*6115 FILLER_0_36_65
*6116 FILLER_0_36_657
*6117 FILLER_0_36_669
*6118 FILLER_0_36_681
*6119 FILLER_0_36_693
*6120 FILLER_0_36_699
*6121 FILLER_0_36_701
*6122 FILLER_0_36_713
*6123 FILLER_0_36_725
*6124 FILLER_0_36_737
*6125 FILLER_0_36_749
*6126 FILLER_0_36_755
*6127 FILLER_0_36_757
*6128 FILLER_0_36_769
*6129 FILLER_0_36_77
*6130 FILLER_0_36_781
*6131 FILLER_0_36_793
*6132 FILLER_0_36_805
*6133 FILLER_0_36_811
*6134 FILLER_0_36_813
*6135 FILLER_0_36_821
*6136 FILLER_0_36_83
*6137 FILLER_0_36_85
*6138 FILLER_0_36_97
*6139 FILLER_0_37_105
*6140 FILLER_0_37_111
*6141 FILLER_0_37_113
*6142 FILLER_0_37_125
*6143 FILLER_0_37_137
*6144 FILLER_0_37_149
*6145 FILLER_0_37_161
*6146 FILLER_0_37_167
*6147 FILLER_0_37_169
*6148 FILLER_0_37_18
*6149 FILLER_0_37_181
*6150 FILLER_0_37_193
*6151 FILLER_0_37_205
*6152 FILLER_0_37_217
*6153 FILLER_0_37_223
*6154 FILLER_0_37_225
*6155 FILLER_0_37_237
*6156 FILLER_0_37_249
*6157 FILLER_0_37_261
*6158 FILLER_0_37_273
*6159 FILLER_0_37_279
*6160 FILLER_0_37_281
*6161 FILLER_0_37_293
*6162 FILLER_0_37_30
*6163 FILLER_0_37_305
*6164 FILLER_0_37_317
*6165 FILLER_0_37_329
*6166 FILLER_0_37_335
*6167 FILLER_0_37_337
*6168 FILLER_0_37_349
*6169 FILLER_0_37_361
*6170 FILLER_0_37_373
*6171 FILLER_0_37_385
*6172 FILLER_0_37_391
*6173 FILLER_0_37_393
*6174 FILLER_0_37_405
*6175 FILLER_0_37_417
*6176 FILLER_0_37_42
*6177 FILLER_0_37_429
*6178 FILLER_0_37_441
*6179 FILLER_0_37_447
*6180 FILLER_0_37_449
*6181 FILLER_0_37_461
*6182 FILLER_0_37_473
*6183 FILLER_0_37_485
*6184 FILLER_0_37_497
*6185 FILLER_0_37_503
*6186 FILLER_0_37_505
*6187 FILLER_0_37_517
*6188 FILLER_0_37_529
*6189 FILLER_0_37_54
*6190 FILLER_0_37_541
*6191 FILLER_0_37_553
*6192 FILLER_0_37_559
*6193 FILLER_0_37_561
*6194 FILLER_0_37_57
*6195 FILLER_0_37_573
*6196 FILLER_0_37_585
*6197 FILLER_0_37_597
*6198 FILLER_0_37_6
*6199 FILLER_0_37_609
*6200 FILLER_0_37_615
*6201 FILLER_0_37_617
*6202 FILLER_0_37_629
*6203 FILLER_0_37_641
*6204 FILLER_0_37_653
*6205 FILLER_0_37_665
*6206 FILLER_0_37_671
*6207 FILLER_0_37_673
*6208 FILLER_0_37_685
*6209 FILLER_0_37_69
*6210 FILLER_0_37_697
*6211 FILLER_0_37_709
*6212 FILLER_0_37_721
*6213 FILLER_0_37_727
*6214 FILLER_0_37_729
*6215 FILLER_0_37_741
*6216 FILLER_0_37_753
*6217 FILLER_0_37_765
*6218 FILLER_0_37_777
*6219 FILLER_0_37_783
*6220 FILLER_0_37_785
*6221 FILLER_0_37_797
*6222 FILLER_0_37_809
*6223 FILLER_0_37_81
*6224 FILLER_0_37_821
*6225 FILLER_0_37_93
*6226 FILLER_0_38_109
*6227 FILLER_0_38_121
*6228 FILLER_0_38_133
*6229 FILLER_0_38_139
*6230 FILLER_0_38_141
*6231 FILLER_0_38_15
*6232 FILLER_0_38_153
*6233 FILLER_0_38_165
*6234 FILLER_0_38_177
*6235 FILLER_0_38_189
*6236 FILLER_0_38_195
*6237 FILLER_0_38_197
*6238 FILLER_0_38_209
*6239 FILLER_0_38_221
*6240 FILLER_0_38_233
*6241 FILLER_0_38_245
*6242 FILLER_0_38_251
*6243 FILLER_0_38_253
*6244 FILLER_0_38_265
*6245 FILLER_0_38_27
*6246 FILLER_0_38_277
*6247 FILLER_0_38_289
*6248 FILLER_0_38_29
*6249 FILLER_0_38_3
*6250 FILLER_0_38_301
*6251 FILLER_0_38_307
*6252 FILLER_0_38_309
*6253 FILLER_0_38_321
*6254 FILLER_0_38_333
*6255 FILLER_0_38_345
*6256 FILLER_0_38_357
*6257 FILLER_0_38_363
*6258 FILLER_0_38_365
*6259 FILLER_0_38_377
*6260 FILLER_0_38_389
*6261 FILLER_0_38_401
*6262 FILLER_0_38_41
*6263 FILLER_0_38_413
*6264 FILLER_0_38_419
*6265 FILLER_0_38_421
*6266 FILLER_0_38_433
*6267 FILLER_0_38_445
*6268 FILLER_0_38_457
*6269 FILLER_0_38_469
*6270 FILLER_0_38_475
*6271 FILLER_0_38_477
*6272 FILLER_0_38_489
*6273 FILLER_0_38_501
*6274 FILLER_0_38_513
*6275 FILLER_0_38_525
*6276 FILLER_0_38_53
*6277 FILLER_0_38_531
*6278 FILLER_0_38_533
*6279 FILLER_0_38_545
*6280 FILLER_0_38_557
*6281 FILLER_0_38_569
*6282 FILLER_0_38_581
*6283 FILLER_0_38_587
*6284 FILLER_0_38_589
*6285 FILLER_0_38_601
*6286 FILLER_0_38_613
*6287 FILLER_0_38_625
*6288 FILLER_0_38_637
*6289 FILLER_0_38_643
*6290 FILLER_0_38_645
*6291 FILLER_0_38_65
*6292 FILLER_0_38_657
*6293 FILLER_0_38_669
*6294 FILLER_0_38_681
*6295 FILLER_0_38_693
*6296 FILLER_0_38_699
*6297 FILLER_0_38_701
*6298 FILLER_0_38_713
*6299 FILLER_0_38_725
*6300 FILLER_0_38_737
*6301 FILLER_0_38_749
*6302 FILLER_0_38_755
*6303 FILLER_0_38_757
*6304 FILLER_0_38_769
*6305 FILLER_0_38_77
*6306 FILLER_0_38_781
*6307 FILLER_0_38_793
*6308 FILLER_0_38_805
*6309 FILLER_0_38_811
*6310 FILLER_0_38_813
*6311 FILLER_0_38_821
*6312 FILLER_0_38_83
*6313 FILLER_0_38_85
*6314 FILLER_0_38_97
*6315 FILLER_0_39_105
*6316 FILLER_0_39_111
*6317 FILLER_0_39_113
*6318 FILLER_0_39_125
*6319 FILLER_0_39_137
*6320 FILLER_0_39_149
*6321 FILLER_0_39_15
*6322 FILLER_0_39_161
*6323 FILLER_0_39_167
*6324 FILLER_0_39_169
*6325 FILLER_0_39_181
*6326 FILLER_0_39_193
*6327 FILLER_0_39_205
*6328 FILLER_0_39_217
*6329 FILLER_0_39_223
*6330 FILLER_0_39_225
*6331 FILLER_0_39_237
*6332 FILLER_0_39_249
*6333 FILLER_0_39_261
*6334 FILLER_0_39_27
*6335 FILLER_0_39_273
*6336 FILLER_0_39_279
*6337 FILLER_0_39_281
*6338 FILLER_0_39_293
*6339 FILLER_0_39_3
*6340 FILLER_0_39_305
*6341 FILLER_0_39_317
*6342 FILLER_0_39_329
*6343 FILLER_0_39_335
*6344 FILLER_0_39_337
*6345 FILLER_0_39_349
*6346 FILLER_0_39_361
*6347 FILLER_0_39_373
*6348 FILLER_0_39_385
*6349 FILLER_0_39_39
*6350 FILLER_0_39_391
*6351 FILLER_0_39_393
*6352 FILLER_0_39_405
*6353 FILLER_0_39_417
*6354 FILLER_0_39_429
*6355 FILLER_0_39_441
*6356 FILLER_0_39_447
*6357 FILLER_0_39_449
*6358 FILLER_0_39_461
*6359 FILLER_0_39_473
*6360 FILLER_0_39_485
*6361 FILLER_0_39_497
*6362 FILLER_0_39_503
*6363 FILLER_0_39_505
*6364 FILLER_0_39_51
*6365 FILLER_0_39_517
*6366 FILLER_0_39_529
*6367 FILLER_0_39_541
*6368 FILLER_0_39_55
*6369 FILLER_0_39_553
*6370 FILLER_0_39_559
*6371 FILLER_0_39_561
*6372 FILLER_0_39_57
*6373 FILLER_0_39_573
*6374 FILLER_0_39_585
*6375 FILLER_0_39_597
*6376 FILLER_0_39_609
*6377 FILLER_0_39_615
*6378 FILLER_0_39_617
*6379 FILLER_0_39_629
*6380 FILLER_0_39_641
*6381 FILLER_0_39_653
*6382 FILLER_0_39_665
*6383 FILLER_0_39_671
*6384 FILLER_0_39_673
*6385 FILLER_0_39_685
*6386 FILLER_0_39_69
*6387 FILLER_0_39_697
*6388 FILLER_0_39_709
*6389 FILLER_0_39_721
*6390 FILLER_0_39_727
*6391 FILLER_0_39_729
*6392 FILLER_0_39_741
*6393 FILLER_0_39_753
*6394 FILLER_0_39_765
*6395 FILLER_0_39_777
*6396 FILLER_0_39_783
*6397 FILLER_0_39_785
*6398 FILLER_0_39_797
*6399 FILLER_0_39_809
*6400 FILLER_0_39_81
*6401 FILLER_0_39_821
*6402 FILLER_0_39_93
*6403 FILLER_0_3_105
*6404 FILLER_0_3_111
*6405 FILLER_0_3_113
*6406 FILLER_0_3_125
*6407 FILLER_0_3_137
*6408 FILLER_0_3_149
*6409 FILLER_0_3_15
*6410 FILLER_0_3_161
*6411 FILLER_0_3_167
*6412 FILLER_0_3_169
*6413 FILLER_0_3_181
*6414 FILLER_0_3_193
*6415 FILLER_0_3_205
*6416 FILLER_0_3_217
*6417 FILLER_0_3_223
*6418 FILLER_0_3_225
*6419 FILLER_0_3_237
*6420 FILLER_0_3_249
*6421 FILLER_0_3_261
*6422 FILLER_0_3_27
*6423 FILLER_0_3_273
*6424 FILLER_0_3_279
*6425 FILLER_0_3_281
*6426 FILLER_0_3_293
*6427 FILLER_0_3_3
*6428 FILLER_0_3_305
*6429 FILLER_0_3_317
*6430 FILLER_0_3_329
*6431 FILLER_0_3_335
*6432 FILLER_0_3_337
*6433 FILLER_0_3_349
*6434 FILLER_0_3_361
*6435 FILLER_0_3_373
*6436 FILLER_0_3_385
*6437 FILLER_0_3_39
*6438 FILLER_0_3_391
*6439 FILLER_0_3_393
*6440 FILLER_0_3_405
*6441 FILLER_0_3_417
*6442 FILLER_0_3_429
*6443 FILLER_0_3_441
*6444 FILLER_0_3_447
*6445 FILLER_0_3_449
*6446 FILLER_0_3_461
*6447 FILLER_0_3_473
*6448 FILLER_0_3_485
*6449 FILLER_0_3_497
*6450 FILLER_0_3_503
*6451 FILLER_0_3_505
*6452 FILLER_0_3_51
*6453 FILLER_0_3_517
*6454 FILLER_0_3_529
*6455 FILLER_0_3_541
*6456 FILLER_0_3_55
*6457 FILLER_0_3_553
*6458 FILLER_0_3_559
*6459 FILLER_0_3_561
*6460 FILLER_0_3_57
*6461 FILLER_0_3_573
*6462 FILLER_0_3_585
*6463 FILLER_0_3_597
*6464 FILLER_0_3_609
*6465 FILLER_0_3_615
*6466 FILLER_0_3_617
*6467 FILLER_0_3_629
*6468 FILLER_0_3_641
*6469 FILLER_0_3_653
*6470 FILLER_0_3_665
*6471 FILLER_0_3_671
*6472 FILLER_0_3_673
*6473 FILLER_0_3_685
*6474 FILLER_0_3_69
*6475 FILLER_0_3_697
*6476 FILLER_0_3_709
*6477 FILLER_0_3_721
*6478 FILLER_0_3_727
*6479 FILLER_0_3_729
*6480 FILLER_0_3_741
*6481 FILLER_0_3_753
*6482 FILLER_0_3_765
*6483 FILLER_0_3_777
*6484 FILLER_0_3_783
*6485 FILLER_0_3_785
*6486 FILLER_0_3_797
*6487 FILLER_0_3_809
*6488 FILLER_0_3_81
*6489 FILLER_0_3_821
*6490 FILLER_0_3_93
*6491 FILLER_0_40_109
*6492 FILLER_0_40_121
*6493 FILLER_0_40_133
*6494 FILLER_0_40_139
*6495 FILLER_0_40_141
*6496 FILLER_0_40_15
*6497 FILLER_0_40_153
*6498 FILLER_0_40_165
*6499 FILLER_0_40_177
*6500 FILLER_0_40_189
*6501 FILLER_0_40_195
*6502 FILLER_0_40_197
*6503 FILLER_0_40_209
*6504 FILLER_0_40_221
*6505 FILLER_0_40_233
*6506 FILLER_0_40_245
*6507 FILLER_0_40_251
*6508 FILLER_0_40_253
*6509 FILLER_0_40_265
*6510 FILLER_0_40_27
*6511 FILLER_0_40_277
*6512 FILLER_0_40_289
*6513 FILLER_0_40_29
*6514 FILLER_0_40_3
*6515 FILLER_0_40_301
*6516 FILLER_0_40_307
*6517 FILLER_0_40_309
*6518 FILLER_0_40_321
*6519 FILLER_0_40_333
*6520 FILLER_0_40_345
*6521 FILLER_0_40_357
*6522 FILLER_0_40_363
*6523 FILLER_0_40_365
*6524 FILLER_0_40_377
*6525 FILLER_0_40_389
*6526 FILLER_0_40_401
*6527 FILLER_0_40_41
*6528 FILLER_0_40_413
*6529 FILLER_0_40_419
*6530 FILLER_0_40_421
*6531 FILLER_0_40_433
*6532 FILLER_0_40_445
*6533 FILLER_0_40_457
*6534 FILLER_0_40_469
*6535 FILLER_0_40_475
*6536 FILLER_0_40_477
*6537 FILLER_0_40_489
*6538 FILLER_0_40_501
*6539 FILLER_0_40_513
*6540 FILLER_0_40_525
*6541 FILLER_0_40_53
*6542 FILLER_0_40_531
*6543 FILLER_0_40_533
*6544 FILLER_0_40_545
*6545 FILLER_0_40_557
*6546 FILLER_0_40_569
*6547 FILLER_0_40_581
*6548 FILLER_0_40_587
*6549 FILLER_0_40_589
*6550 FILLER_0_40_601
*6551 FILLER_0_40_613
*6552 FILLER_0_40_625
*6553 FILLER_0_40_637
*6554 FILLER_0_40_643
*6555 FILLER_0_40_645
*6556 FILLER_0_40_65
*6557 FILLER_0_40_657
*6558 FILLER_0_40_669
*6559 FILLER_0_40_681
*6560 FILLER_0_40_693
*6561 FILLER_0_40_699
*6562 FILLER_0_40_701
*6563 FILLER_0_40_713
*6564 FILLER_0_40_725
*6565 FILLER_0_40_737
*6566 FILLER_0_40_749
*6567 FILLER_0_40_755
*6568 FILLER_0_40_757
*6569 FILLER_0_40_769
*6570 FILLER_0_40_77
*6571 FILLER_0_40_781
*6572 FILLER_0_40_793
*6573 FILLER_0_40_805
*6574 FILLER_0_40_811
*6575 FILLER_0_40_813
*6576 FILLER_0_40_821
*6577 FILLER_0_40_83
*6578 FILLER_0_40_85
*6579 FILLER_0_40_97
*6580 FILLER_0_41_105
*6581 FILLER_0_41_111
*6582 FILLER_0_41_113
*6583 FILLER_0_41_125
*6584 FILLER_0_41_137
*6585 FILLER_0_41_149
*6586 FILLER_0_41_15
*6587 FILLER_0_41_161
*6588 FILLER_0_41_167
*6589 FILLER_0_41_169
*6590 FILLER_0_41_181
*6591 FILLER_0_41_193
*6592 FILLER_0_41_205
*6593 FILLER_0_41_217
*6594 FILLER_0_41_223
*6595 FILLER_0_41_225
*6596 FILLER_0_41_237
*6597 FILLER_0_41_249
*6598 FILLER_0_41_261
*6599 FILLER_0_41_27
*6600 FILLER_0_41_273
*6601 FILLER_0_41_279
*6602 FILLER_0_41_281
*6603 FILLER_0_41_293
*6604 FILLER_0_41_3
*6605 FILLER_0_41_305
*6606 FILLER_0_41_317
*6607 FILLER_0_41_329
*6608 FILLER_0_41_335
*6609 FILLER_0_41_337
*6610 FILLER_0_41_349
*6611 FILLER_0_41_361
*6612 FILLER_0_41_373
*6613 FILLER_0_41_385
*6614 FILLER_0_41_39
*6615 FILLER_0_41_391
*6616 FILLER_0_41_393
*6617 FILLER_0_41_405
*6618 FILLER_0_41_417
*6619 FILLER_0_41_429
*6620 FILLER_0_41_441
*6621 FILLER_0_41_447
*6622 FILLER_0_41_449
*6623 FILLER_0_41_461
*6624 FILLER_0_41_473
*6625 FILLER_0_41_485
*6626 FILLER_0_41_497
*6627 FILLER_0_41_503
*6628 FILLER_0_41_505
*6629 FILLER_0_41_51
*6630 FILLER_0_41_517
*6631 FILLER_0_41_529
*6632 FILLER_0_41_541
*6633 FILLER_0_41_55
*6634 FILLER_0_41_553
*6635 FILLER_0_41_559
*6636 FILLER_0_41_561
*6637 FILLER_0_41_57
*6638 FILLER_0_41_573
*6639 FILLER_0_41_585
*6640 FILLER_0_41_597
*6641 FILLER_0_41_609
*6642 FILLER_0_41_615
*6643 FILLER_0_41_617
*6644 FILLER_0_41_629
*6645 FILLER_0_41_641
*6646 FILLER_0_41_653
*6647 FILLER_0_41_665
*6648 FILLER_0_41_671
*6649 FILLER_0_41_673
*6650 FILLER_0_41_685
*6651 FILLER_0_41_69
*6652 FILLER_0_41_697
*6653 FILLER_0_41_709
*6654 FILLER_0_41_721
*6655 FILLER_0_41_727
*6656 FILLER_0_41_729
*6657 FILLER_0_41_741
*6658 FILLER_0_41_753
*6659 FILLER_0_41_765
*6660 FILLER_0_41_777
*6661 FILLER_0_41_783
*6662 FILLER_0_41_785
*6663 FILLER_0_41_797
*6664 FILLER_0_41_809
*6665 FILLER_0_41_81
*6666 FILLER_0_41_821
*6667 FILLER_0_41_93
*6668 FILLER_0_42_109
*6669 FILLER_0_42_121
*6670 FILLER_0_42_133
*6671 FILLER_0_42_139
*6672 FILLER_0_42_141
*6673 FILLER_0_42_15
*6674 FILLER_0_42_153
*6675 FILLER_0_42_165
*6676 FILLER_0_42_177
*6677 FILLER_0_42_189
*6678 FILLER_0_42_195
*6679 FILLER_0_42_197
*6680 FILLER_0_42_209
*6681 FILLER_0_42_221
*6682 FILLER_0_42_233
*6683 FILLER_0_42_245
*6684 FILLER_0_42_251
*6685 FILLER_0_42_253
*6686 FILLER_0_42_265
*6687 FILLER_0_42_27
*6688 FILLER_0_42_277
*6689 FILLER_0_42_289
*6690 FILLER_0_42_29
*6691 FILLER_0_42_3
*6692 FILLER_0_42_301
*6693 FILLER_0_42_307
*6694 FILLER_0_42_309
*6695 FILLER_0_42_321
*6696 FILLER_0_42_333
*6697 FILLER_0_42_345
*6698 FILLER_0_42_357
*6699 FILLER_0_42_363
*6700 FILLER_0_42_365
*6701 FILLER_0_42_377
*6702 FILLER_0_42_389
*6703 FILLER_0_42_401
*6704 FILLER_0_42_41
*6705 FILLER_0_42_413
*6706 FILLER_0_42_419
*6707 FILLER_0_42_421
*6708 FILLER_0_42_433
*6709 FILLER_0_42_445
*6710 FILLER_0_42_457
*6711 FILLER_0_42_469
*6712 FILLER_0_42_475
*6713 FILLER_0_42_477
*6714 FILLER_0_42_489
*6715 FILLER_0_42_501
*6716 FILLER_0_42_513
*6717 FILLER_0_42_525
*6718 FILLER_0_42_53
*6719 FILLER_0_42_531
*6720 FILLER_0_42_533
*6721 FILLER_0_42_545
*6722 FILLER_0_42_557
*6723 FILLER_0_42_569
*6724 FILLER_0_42_581
*6725 FILLER_0_42_587
*6726 FILLER_0_42_589
*6727 FILLER_0_42_601
*6728 FILLER_0_42_613
*6729 FILLER_0_42_625
*6730 FILLER_0_42_637
*6731 FILLER_0_42_643
*6732 FILLER_0_42_645
*6733 FILLER_0_42_65
*6734 FILLER_0_42_657
*6735 FILLER_0_42_669
*6736 FILLER_0_42_681
*6737 FILLER_0_42_693
*6738 FILLER_0_42_699
*6739 FILLER_0_42_701
*6740 FILLER_0_42_713
*6741 FILLER_0_42_725
*6742 FILLER_0_42_737
*6743 FILLER_0_42_749
*6744 FILLER_0_42_755
*6745 FILLER_0_42_757
*6746 FILLER_0_42_769
*6747 FILLER_0_42_77
*6748 FILLER_0_42_781
*6749 FILLER_0_42_793
*6750 FILLER_0_42_805
*6751 FILLER_0_42_811
*6752 FILLER_0_42_813
*6753 FILLER_0_42_821
*6754 FILLER_0_42_83
*6755 FILLER_0_42_85
*6756 FILLER_0_42_97
*6757 FILLER_0_43_105
*6758 FILLER_0_43_111
*6759 FILLER_0_43_113
*6760 FILLER_0_43_125
*6761 FILLER_0_43_137
*6762 FILLER_0_43_149
*6763 FILLER_0_43_15
*6764 FILLER_0_43_161
*6765 FILLER_0_43_167
*6766 FILLER_0_43_169
*6767 FILLER_0_43_181
*6768 FILLER_0_43_193
*6769 FILLER_0_43_205
*6770 FILLER_0_43_217
*6771 FILLER_0_43_223
*6772 FILLER_0_43_225
*6773 FILLER_0_43_237
*6774 FILLER_0_43_249
*6775 FILLER_0_43_261
*6776 FILLER_0_43_27
*6777 FILLER_0_43_273
*6778 FILLER_0_43_279
*6779 FILLER_0_43_281
*6780 FILLER_0_43_293
*6781 FILLER_0_43_3
*6782 FILLER_0_43_305
*6783 FILLER_0_43_317
*6784 FILLER_0_43_329
*6785 FILLER_0_43_335
*6786 FILLER_0_43_337
*6787 FILLER_0_43_349
*6788 FILLER_0_43_361
*6789 FILLER_0_43_373
*6790 FILLER_0_43_385
*6791 FILLER_0_43_39
*6792 FILLER_0_43_391
*6793 FILLER_0_43_393
*6794 FILLER_0_43_405
*6795 FILLER_0_43_417
*6796 FILLER_0_43_429
*6797 FILLER_0_43_441
*6798 FILLER_0_43_447
*6799 FILLER_0_43_449
*6800 FILLER_0_43_461
*6801 FILLER_0_43_473
*6802 FILLER_0_43_485
*6803 FILLER_0_43_497
*6804 FILLER_0_43_503
*6805 FILLER_0_43_505
*6806 FILLER_0_43_51
*6807 FILLER_0_43_517
*6808 FILLER_0_43_529
*6809 FILLER_0_43_541
*6810 FILLER_0_43_55
*6811 FILLER_0_43_553
*6812 FILLER_0_43_559
*6813 FILLER_0_43_561
*6814 FILLER_0_43_57
*6815 FILLER_0_43_573
*6816 FILLER_0_43_585
*6817 FILLER_0_43_597
*6818 FILLER_0_43_609
*6819 FILLER_0_43_615
*6820 FILLER_0_43_617
*6821 FILLER_0_43_629
*6822 FILLER_0_43_641
*6823 FILLER_0_43_653
*6824 FILLER_0_43_665
*6825 FILLER_0_43_671
*6826 FILLER_0_43_673
*6827 FILLER_0_43_685
*6828 FILLER_0_43_69
*6829 FILLER_0_43_697
*6830 FILLER_0_43_709
*6831 FILLER_0_43_721
*6832 FILLER_0_43_727
*6833 FILLER_0_43_729
*6834 FILLER_0_43_741
*6835 FILLER_0_43_753
*6836 FILLER_0_43_765
*6837 FILLER_0_43_777
*6838 FILLER_0_43_783
*6839 FILLER_0_43_785
*6840 FILLER_0_43_797
*6841 FILLER_0_43_809
*6842 FILLER_0_43_81
*6843 FILLER_0_43_821
*6844 FILLER_0_43_93
*6845 FILLER_0_44_109
*6846 FILLER_0_44_121
*6847 FILLER_0_44_133
*6848 FILLER_0_44_139
*6849 FILLER_0_44_141
*6850 FILLER_0_44_15
*6851 FILLER_0_44_153
*6852 FILLER_0_44_165
*6853 FILLER_0_44_177
*6854 FILLER_0_44_189
*6855 FILLER_0_44_195
*6856 FILLER_0_44_197
*6857 FILLER_0_44_209
*6858 FILLER_0_44_221
*6859 FILLER_0_44_233
*6860 FILLER_0_44_245
*6861 FILLER_0_44_251
*6862 FILLER_0_44_253
*6863 FILLER_0_44_265
*6864 FILLER_0_44_27
*6865 FILLER_0_44_277
*6866 FILLER_0_44_289
*6867 FILLER_0_44_29
*6868 FILLER_0_44_3
*6869 FILLER_0_44_301
*6870 FILLER_0_44_307
*6871 FILLER_0_44_309
*6872 FILLER_0_44_321
*6873 FILLER_0_44_333
*6874 FILLER_0_44_345
*6875 FILLER_0_44_357
*6876 FILLER_0_44_363
*6877 FILLER_0_44_365
*6878 FILLER_0_44_377
*6879 FILLER_0_44_389
*6880 FILLER_0_44_401
*6881 FILLER_0_44_41
*6882 FILLER_0_44_413
*6883 FILLER_0_44_419
*6884 FILLER_0_44_421
*6885 FILLER_0_44_433
*6886 FILLER_0_44_445
*6887 FILLER_0_44_457
*6888 FILLER_0_44_469
*6889 FILLER_0_44_475
*6890 FILLER_0_44_477
*6891 FILLER_0_44_489
*6892 FILLER_0_44_501
*6893 FILLER_0_44_513
*6894 FILLER_0_44_525
*6895 FILLER_0_44_53
*6896 FILLER_0_44_531
*6897 FILLER_0_44_533
*6898 FILLER_0_44_545
*6899 FILLER_0_44_557
*6900 FILLER_0_44_569
*6901 FILLER_0_44_581
*6902 FILLER_0_44_587
*6903 FILLER_0_44_589
*6904 FILLER_0_44_601
*6905 FILLER_0_44_613
*6906 FILLER_0_44_625
*6907 FILLER_0_44_637
*6908 FILLER_0_44_643
*6909 FILLER_0_44_645
*6910 FILLER_0_44_65
*6911 FILLER_0_44_657
*6912 FILLER_0_44_669
*6913 FILLER_0_44_681
*6914 FILLER_0_44_693
*6915 FILLER_0_44_699
*6916 FILLER_0_44_701
*6917 FILLER_0_44_713
*6918 FILLER_0_44_725
*6919 FILLER_0_44_737
*6920 FILLER_0_44_749
*6921 FILLER_0_44_755
*6922 FILLER_0_44_757
*6923 FILLER_0_44_769
*6924 FILLER_0_44_77
*6925 FILLER_0_44_781
*6926 FILLER_0_44_793
*6927 FILLER_0_44_805
*6928 FILLER_0_44_811
*6929 FILLER_0_44_813
*6930 FILLER_0_44_821
*6931 FILLER_0_44_83
*6932 FILLER_0_44_85
*6933 FILLER_0_44_97
*6934 FILLER_0_45_105
*6935 FILLER_0_45_111
*6936 FILLER_0_45_113
*6937 FILLER_0_45_125
*6938 FILLER_0_45_137
*6939 FILLER_0_45_149
*6940 FILLER_0_45_15
*6941 FILLER_0_45_161
*6942 FILLER_0_45_167
*6943 FILLER_0_45_169
*6944 FILLER_0_45_181
*6945 FILLER_0_45_193
*6946 FILLER_0_45_205
*6947 FILLER_0_45_217
*6948 FILLER_0_45_223
*6949 FILLER_0_45_225
*6950 FILLER_0_45_237
*6951 FILLER_0_45_249
*6952 FILLER_0_45_261
*6953 FILLER_0_45_27
*6954 FILLER_0_45_273
*6955 FILLER_0_45_279
*6956 FILLER_0_45_281
*6957 FILLER_0_45_293
*6958 FILLER_0_45_3
*6959 FILLER_0_45_305
*6960 FILLER_0_45_317
*6961 FILLER_0_45_329
*6962 FILLER_0_45_335
*6963 FILLER_0_45_337
*6964 FILLER_0_45_349
*6965 FILLER_0_45_361
*6966 FILLER_0_45_373
*6967 FILLER_0_45_385
*6968 FILLER_0_45_39
*6969 FILLER_0_45_391
*6970 FILLER_0_45_393
*6971 FILLER_0_45_405
*6972 FILLER_0_45_417
*6973 FILLER_0_45_429
*6974 FILLER_0_45_441
*6975 FILLER_0_45_447
*6976 FILLER_0_45_449
*6977 FILLER_0_45_461
*6978 FILLER_0_45_473
*6979 FILLER_0_45_485
*6980 FILLER_0_45_497
*6981 FILLER_0_45_503
*6982 FILLER_0_45_505
*6983 FILLER_0_45_51
*6984 FILLER_0_45_517
*6985 FILLER_0_45_529
*6986 FILLER_0_45_541
*6987 FILLER_0_45_55
*6988 FILLER_0_45_553
*6989 FILLER_0_45_559
*6990 FILLER_0_45_561
*6991 FILLER_0_45_57
*6992 FILLER_0_45_573
*6993 FILLER_0_45_585
*6994 FILLER_0_45_597
*6995 FILLER_0_45_609
*6996 FILLER_0_45_615
*6997 FILLER_0_45_617
*6998 FILLER_0_45_629
*6999 FILLER_0_45_641
*7000 FILLER_0_45_653
*7001 FILLER_0_45_665
*7002 FILLER_0_45_671
*7003 FILLER_0_45_673
*7004 FILLER_0_45_685
*7005 FILLER_0_45_69
*7006 FILLER_0_45_697
*7007 FILLER_0_45_709
*7008 FILLER_0_45_721
*7009 FILLER_0_45_727
*7010 FILLER_0_45_729
*7011 FILLER_0_45_741
*7012 FILLER_0_45_753
*7013 FILLER_0_45_765
*7014 FILLER_0_45_777
*7015 FILLER_0_45_783
*7016 FILLER_0_45_785
*7017 FILLER_0_45_797
*7018 FILLER_0_45_809
*7019 FILLER_0_45_81
*7020 FILLER_0_45_821
*7021 FILLER_0_45_93
*7022 FILLER_0_46_109
*7023 FILLER_0_46_121
*7024 FILLER_0_46_133
*7025 FILLER_0_46_139
*7026 FILLER_0_46_141
*7027 FILLER_0_46_15
*7028 FILLER_0_46_153
*7029 FILLER_0_46_165
*7030 FILLER_0_46_177
*7031 FILLER_0_46_189
*7032 FILLER_0_46_195
*7033 FILLER_0_46_197
*7034 FILLER_0_46_209
*7035 FILLER_0_46_221
*7036 FILLER_0_46_233
*7037 FILLER_0_46_245
*7038 FILLER_0_46_251
*7039 FILLER_0_46_253
*7040 FILLER_0_46_265
*7041 FILLER_0_46_27
*7042 FILLER_0_46_277
*7043 FILLER_0_46_289
*7044 FILLER_0_46_29
*7045 FILLER_0_46_3
*7046 FILLER_0_46_301
*7047 FILLER_0_46_307
*7048 FILLER_0_46_309
*7049 FILLER_0_46_321
*7050 FILLER_0_46_333
*7051 FILLER_0_46_345
*7052 FILLER_0_46_357
*7053 FILLER_0_46_363
*7054 FILLER_0_46_365
*7055 FILLER_0_46_377
*7056 FILLER_0_46_389
*7057 FILLER_0_46_401
*7058 FILLER_0_46_41
*7059 FILLER_0_46_413
*7060 FILLER_0_46_419
*7061 FILLER_0_46_421
*7062 FILLER_0_46_433
*7063 FILLER_0_46_445
*7064 FILLER_0_46_457
*7065 FILLER_0_46_469
*7066 FILLER_0_46_475
*7067 FILLER_0_46_477
*7068 FILLER_0_46_489
*7069 FILLER_0_46_501
*7070 FILLER_0_46_513
*7071 FILLER_0_46_525
*7072 FILLER_0_46_53
*7073 FILLER_0_46_531
*7074 FILLER_0_46_533
*7075 FILLER_0_46_545
*7076 FILLER_0_46_557
*7077 FILLER_0_46_569
*7078 FILLER_0_46_581
*7079 FILLER_0_46_587
*7080 FILLER_0_46_589
*7081 FILLER_0_46_601
*7082 FILLER_0_46_613
*7083 FILLER_0_46_625
*7084 FILLER_0_46_637
*7085 FILLER_0_46_643
*7086 FILLER_0_46_645
*7087 FILLER_0_46_65
*7088 FILLER_0_46_657
*7089 FILLER_0_46_669
*7090 FILLER_0_46_681
*7091 FILLER_0_46_693
*7092 FILLER_0_46_699
*7093 FILLER_0_46_701
*7094 FILLER_0_46_713
*7095 FILLER_0_46_725
*7096 FILLER_0_46_737
*7097 FILLER_0_46_749
*7098 FILLER_0_46_755
*7099 FILLER_0_46_757
*7100 FILLER_0_46_769
*7101 FILLER_0_46_77
*7102 FILLER_0_46_781
*7103 FILLER_0_46_793
*7104 FILLER_0_46_805
*7105 FILLER_0_46_811
*7106 FILLER_0_46_813
*7107 FILLER_0_46_821
*7108 FILLER_0_46_83
*7109 FILLER_0_46_85
*7110 FILLER_0_46_97
*7111 FILLER_0_47_105
*7112 FILLER_0_47_111
*7113 FILLER_0_47_113
*7114 FILLER_0_47_125
*7115 FILLER_0_47_137
*7116 FILLER_0_47_149
*7117 FILLER_0_47_15
*7118 FILLER_0_47_161
*7119 FILLER_0_47_167
*7120 FILLER_0_47_169
*7121 FILLER_0_47_181
*7122 FILLER_0_47_193
*7123 FILLER_0_47_205
*7124 FILLER_0_47_217
*7125 FILLER_0_47_223
*7126 FILLER_0_47_225
*7127 FILLER_0_47_237
*7128 FILLER_0_47_249
*7129 FILLER_0_47_261
*7130 FILLER_0_47_27
*7131 FILLER_0_47_273
*7132 FILLER_0_47_279
*7133 FILLER_0_47_281
*7134 FILLER_0_47_293
*7135 FILLER_0_47_3
*7136 FILLER_0_47_305
*7137 FILLER_0_47_317
*7138 FILLER_0_47_329
*7139 FILLER_0_47_335
*7140 FILLER_0_47_337
*7141 FILLER_0_47_349
*7142 FILLER_0_47_361
*7143 FILLER_0_47_373
*7144 FILLER_0_47_385
*7145 FILLER_0_47_39
*7146 FILLER_0_47_391
*7147 FILLER_0_47_393
*7148 FILLER_0_47_405
*7149 FILLER_0_47_417
*7150 FILLER_0_47_429
*7151 FILLER_0_47_441
*7152 FILLER_0_47_447
*7153 FILLER_0_47_449
*7154 FILLER_0_47_461
*7155 FILLER_0_47_473
*7156 FILLER_0_47_485
*7157 FILLER_0_47_497
*7158 FILLER_0_47_503
*7159 FILLER_0_47_505
*7160 FILLER_0_47_51
*7161 FILLER_0_47_517
*7162 FILLER_0_47_529
*7163 FILLER_0_47_541
*7164 FILLER_0_47_55
*7165 FILLER_0_47_553
*7166 FILLER_0_47_559
*7167 FILLER_0_47_561
*7168 FILLER_0_47_57
*7169 FILLER_0_47_573
*7170 FILLER_0_47_585
*7171 FILLER_0_47_597
*7172 FILLER_0_47_609
*7173 FILLER_0_47_615
*7174 FILLER_0_47_617
*7175 FILLER_0_47_629
*7176 FILLER_0_47_641
*7177 FILLER_0_47_653
*7178 FILLER_0_47_665
*7179 FILLER_0_47_671
*7180 FILLER_0_47_673
*7181 FILLER_0_47_685
*7182 FILLER_0_47_69
*7183 FILLER_0_47_697
*7184 FILLER_0_47_709
*7185 FILLER_0_47_721
*7186 FILLER_0_47_727
*7187 FILLER_0_47_729
*7188 FILLER_0_47_741
*7189 FILLER_0_47_753
*7190 FILLER_0_47_765
*7191 FILLER_0_47_777
*7192 FILLER_0_47_783
*7193 FILLER_0_47_785
*7194 FILLER_0_47_797
*7195 FILLER_0_47_809
*7196 FILLER_0_47_81
*7197 FILLER_0_47_821
*7198 FILLER_0_47_93
*7199 FILLER_0_48_109
*7200 FILLER_0_48_121
*7201 FILLER_0_48_133
*7202 FILLER_0_48_139
*7203 FILLER_0_48_141
*7204 FILLER_0_48_15
*7205 FILLER_0_48_153
*7206 FILLER_0_48_165
*7207 FILLER_0_48_177
*7208 FILLER_0_48_189
*7209 FILLER_0_48_195
*7210 FILLER_0_48_197
*7211 FILLER_0_48_209
*7212 FILLER_0_48_221
*7213 FILLER_0_48_233
*7214 FILLER_0_48_245
*7215 FILLER_0_48_251
*7216 FILLER_0_48_253
*7217 FILLER_0_48_265
*7218 FILLER_0_48_27
*7219 FILLER_0_48_277
*7220 FILLER_0_48_289
*7221 FILLER_0_48_29
*7222 FILLER_0_48_3
*7223 FILLER_0_48_301
*7224 FILLER_0_48_307
*7225 FILLER_0_48_309
*7226 FILLER_0_48_321
*7227 FILLER_0_48_333
*7228 FILLER_0_48_345
*7229 FILLER_0_48_357
*7230 FILLER_0_48_363
*7231 FILLER_0_48_365
*7232 FILLER_0_48_377
*7233 FILLER_0_48_389
*7234 FILLER_0_48_401
*7235 FILLER_0_48_41
*7236 FILLER_0_48_413
*7237 FILLER_0_48_419
*7238 FILLER_0_48_421
*7239 FILLER_0_48_433
*7240 FILLER_0_48_445
*7241 FILLER_0_48_457
*7242 FILLER_0_48_469
*7243 FILLER_0_48_475
*7244 FILLER_0_48_477
*7245 FILLER_0_48_489
*7246 FILLER_0_48_501
*7247 FILLER_0_48_513
*7248 FILLER_0_48_525
*7249 FILLER_0_48_53
*7250 FILLER_0_48_531
*7251 FILLER_0_48_533
*7252 FILLER_0_48_545
*7253 FILLER_0_48_557
*7254 FILLER_0_48_569
*7255 FILLER_0_48_581
*7256 FILLER_0_48_587
*7257 FILLER_0_48_589
*7258 FILLER_0_48_601
*7259 FILLER_0_48_613
*7260 FILLER_0_48_625
*7261 FILLER_0_48_637
*7262 FILLER_0_48_643
*7263 FILLER_0_48_645
*7264 FILLER_0_48_65
*7265 FILLER_0_48_657
*7266 FILLER_0_48_669
*7267 FILLER_0_48_681
*7268 FILLER_0_48_693
*7269 FILLER_0_48_699
*7270 FILLER_0_48_701
*7271 FILLER_0_48_713
*7272 FILLER_0_48_725
*7273 FILLER_0_48_737
*7274 FILLER_0_48_749
*7275 FILLER_0_48_755
*7276 FILLER_0_48_757
*7277 FILLER_0_48_769
*7278 FILLER_0_48_77
*7279 FILLER_0_48_781
*7280 FILLER_0_48_793
*7281 FILLER_0_48_805
*7282 FILLER_0_48_811
*7283 FILLER_0_48_813
*7284 FILLER_0_48_821
*7285 FILLER_0_48_83
*7286 FILLER_0_48_85
*7287 FILLER_0_48_97
*7288 FILLER_0_49_105
*7289 FILLER_0_49_111
*7290 FILLER_0_49_113
*7291 FILLER_0_49_125
*7292 FILLER_0_49_137
*7293 FILLER_0_49_149
*7294 FILLER_0_49_15
*7295 FILLER_0_49_161
*7296 FILLER_0_49_167
*7297 FILLER_0_49_169
*7298 FILLER_0_49_181
*7299 FILLER_0_49_193
*7300 FILLER_0_49_205
*7301 FILLER_0_49_217
*7302 FILLER_0_49_223
*7303 FILLER_0_49_225
*7304 FILLER_0_49_237
*7305 FILLER_0_49_249
*7306 FILLER_0_49_261
*7307 FILLER_0_49_27
*7308 FILLER_0_49_273
*7309 FILLER_0_49_279
*7310 FILLER_0_49_281
*7311 FILLER_0_49_293
*7312 FILLER_0_49_3
*7313 FILLER_0_49_305
*7314 FILLER_0_49_317
*7315 FILLER_0_49_329
*7316 FILLER_0_49_335
*7317 FILLER_0_49_337
*7318 FILLER_0_49_349
*7319 FILLER_0_49_361
*7320 FILLER_0_49_373
*7321 FILLER_0_49_385
*7322 FILLER_0_49_39
*7323 FILLER_0_49_391
*7324 FILLER_0_49_393
*7325 FILLER_0_49_405
*7326 FILLER_0_49_417
*7327 FILLER_0_49_429
*7328 FILLER_0_49_441
*7329 FILLER_0_49_447
*7330 FILLER_0_49_449
*7331 FILLER_0_49_461
*7332 FILLER_0_49_473
*7333 FILLER_0_49_485
*7334 FILLER_0_49_497
*7335 FILLER_0_49_503
*7336 FILLER_0_49_505
*7337 FILLER_0_49_51
*7338 FILLER_0_49_517
*7339 FILLER_0_49_529
*7340 FILLER_0_49_541
*7341 FILLER_0_49_55
*7342 FILLER_0_49_553
*7343 FILLER_0_49_559
*7344 FILLER_0_49_561
*7345 FILLER_0_49_57
*7346 FILLER_0_49_573
*7347 FILLER_0_49_585
*7348 FILLER_0_49_597
*7349 FILLER_0_49_609
*7350 FILLER_0_49_615
*7351 FILLER_0_49_617
*7352 FILLER_0_49_629
*7353 FILLER_0_49_641
*7354 FILLER_0_49_653
*7355 FILLER_0_49_665
*7356 FILLER_0_49_671
*7357 FILLER_0_49_673
*7358 FILLER_0_49_685
*7359 FILLER_0_49_69
*7360 FILLER_0_49_697
*7361 FILLER_0_49_709
*7362 FILLER_0_49_721
*7363 FILLER_0_49_727
*7364 FILLER_0_49_729
*7365 FILLER_0_49_741
*7366 FILLER_0_49_753
*7367 FILLER_0_49_765
*7368 FILLER_0_49_777
*7369 FILLER_0_49_783
*7370 FILLER_0_49_785
*7371 FILLER_0_49_797
*7372 FILLER_0_49_809
*7373 FILLER_0_49_81
*7374 FILLER_0_49_817
*7375 FILLER_0_49_93
*7376 FILLER_0_4_109
*7377 FILLER_0_4_121
*7378 FILLER_0_4_133
*7379 FILLER_0_4_139
*7380 FILLER_0_4_141
*7381 FILLER_0_4_15
*7382 FILLER_0_4_153
*7383 FILLER_0_4_165
*7384 FILLER_0_4_177
*7385 FILLER_0_4_189
*7386 FILLER_0_4_195
*7387 FILLER_0_4_197
*7388 FILLER_0_4_209
*7389 FILLER_0_4_221
*7390 FILLER_0_4_233
*7391 FILLER_0_4_245
*7392 FILLER_0_4_251
*7393 FILLER_0_4_253
*7394 FILLER_0_4_265
*7395 FILLER_0_4_27
*7396 FILLER_0_4_277
*7397 FILLER_0_4_289
*7398 FILLER_0_4_29
*7399 FILLER_0_4_3
*7400 FILLER_0_4_301
*7401 FILLER_0_4_307
*7402 FILLER_0_4_309
*7403 FILLER_0_4_321
*7404 FILLER_0_4_333
*7405 FILLER_0_4_345
*7406 FILLER_0_4_357
*7407 FILLER_0_4_363
*7408 FILLER_0_4_365
*7409 FILLER_0_4_377
*7410 FILLER_0_4_389
*7411 FILLER_0_4_401
*7412 FILLER_0_4_41
*7413 FILLER_0_4_413
*7414 FILLER_0_4_419
*7415 FILLER_0_4_421
*7416 FILLER_0_4_433
*7417 FILLER_0_4_445
*7418 FILLER_0_4_457
*7419 FILLER_0_4_469
*7420 FILLER_0_4_475
*7421 FILLER_0_4_477
*7422 FILLER_0_4_489
*7423 FILLER_0_4_501
*7424 FILLER_0_4_513
*7425 FILLER_0_4_525
*7426 FILLER_0_4_53
*7427 FILLER_0_4_531
*7428 FILLER_0_4_533
*7429 FILLER_0_4_545
*7430 FILLER_0_4_557
*7431 FILLER_0_4_569
*7432 FILLER_0_4_581
*7433 FILLER_0_4_587
*7434 FILLER_0_4_589
*7435 FILLER_0_4_601
*7436 FILLER_0_4_613
*7437 FILLER_0_4_625
*7438 FILLER_0_4_637
*7439 FILLER_0_4_643
*7440 FILLER_0_4_645
*7441 FILLER_0_4_65
*7442 FILLER_0_4_657
*7443 FILLER_0_4_669
*7444 FILLER_0_4_681
*7445 FILLER_0_4_693
*7446 FILLER_0_4_699
*7447 FILLER_0_4_701
*7448 FILLER_0_4_713
*7449 FILLER_0_4_725
*7450 FILLER_0_4_737
*7451 FILLER_0_4_749
*7452 FILLER_0_4_755
*7453 FILLER_0_4_757
*7454 FILLER_0_4_769
*7455 FILLER_0_4_77
*7456 FILLER_0_4_781
*7457 FILLER_0_4_793
*7458 FILLER_0_4_805
*7459 FILLER_0_4_811
*7460 FILLER_0_4_813
*7461 FILLER_0_4_821
*7462 FILLER_0_4_83
*7463 FILLER_0_4_85
*7464 FILLER_0_4_97
*7465 FILLER_0_50_109
*7466 FILLER_0_50_121
*7467 FILLER_0_50_133
*7468 FILLER_0_50_139
*7469 FILLER_0_50_141
*7470 FILLER_0_50_15
*7471 FILLER_0_50_153
*7472 FILLER_0_50_165
*7473 FILLER_0_50_177
*7474 FILLER_0_50_189
*7475 FILLER_0_50_195
*7476 FILLER_0_50_197
*7477 FILLER_0_50_209
*7478 FILLER_0_50_221
*7479 FILLER_0_50_233
*7480 FILLER_0_50_245
*7481 FILLER_0_50_251
*7482 FILLER_0_50_253
*7483 FILLER_0_50_265
*7484 FILLER_0_50_27
*7485 FILLER_0_50_277
*7486 FILLER_0_50_289
*7487 FILLER_0_50_29
*7488 FILLER_0_50_3
*7489 FILLER_0_50_301
*7490 FILLER_0_50_307
*7491 FILLER_0_50_309
*7492 FILLER_0_50_321
*7493 FILLER_0_50_333
*7494 FILLER_0_50_345
*7495 FILLER_0_50_357
*7496 FILLER_0_50_363
*7497 FILLER_0_50_365
*7498 FILLER_0_50_377
*7499 FILLER_0_50_389
*7500 FILLER_0_50_401
*7501 FILLER_0_50_41
*7502 FILLER_0_50_413
*7503 FILLER_0_50_419
*7504 FILLER_0_50_421
*7505 FILLER_0_50_433
*7506 FILLER_0_50_445
*7507 FILLER_0_50_457
*7508 FILLER_0_50_469
*7509 FILLER_0_50_475
*7510 FILLER_0_50_477
*7511 FILLER_0_50_489
*7512 FILLER_0_50_501
*7513 FILLER_0_50_513
*7514 FILLER_0_50_525
*7515 FILLER_0_50_53
*7516 FILLER_0_50_531
*7517 FILLER_0_50_533
*7518 FILLER_0_50_545
*7519 FILLER_0_50_557
*7520 FILLER_0_50_569
*7521 FILLER_0_50_581
*7522 FILLER_0_50_587
*7523 FILLER_0_50_589
*7524 FILLER_0_50_601
*7525 FILLER_0_50_613
*7526 FILLER_0_50_625
*7527 FILLER_0_50_637
*7528 FILLER_0_50_643
*7529 FILLER_0_50_645
*7530 FILLER_0_50_65
*7531 FILLER_0_50_657
*7532 FILLER_0_50_669
*7533 FILLER_0_50_681
*7534 FILLER_0_50_693
*7535 FILLER_0_50_699
*7536 FILLER_0_50_701
*7537 FILLER_0_50_713
*7538 FILLER_0_50_725
*7539 FILLER_0_50_737
*7540 FILLER_0_50_749
*7541 FILLER_0_50_755
*7542 FILLER_0_50_757
*7543 FILLER_0_50_769
*7544 FILLER_0_50_77
*7545 FILLER_0_50_781
*7546 FILLER_0_50_793
*7547 FILLER_0_50_805
*7548 FILLER_0_50_811
*7549 FILLER_0_50_813
*7550 FILLER_0_50_821
*7551 FILLER_0_50_83
*7552 FILLER_0_50_85
*7553 FILLER_0_50_97
*7554 FILLER_0_51_105
*7555 FILLER_0_51_111
*7556 FILLER_0_51_113
*7557 FILLER_0_51_125
*7558 FILLER_0_51_137
*7559 FILLER_0_51_149
*7560 FILLER_0_51_15
*7561 FILLER_0_51_161
*7562 FILLER_0_51_167
*7563 FILLER_0_51_169
*7564 FILLER_0_51_181
*7565 FILLER_0_51_193
*7566 FILLER_0_51_205
*7567 FILLER_0_51_217
*7568 FILLER_0_51_223
*7569 FILLER_0_51_225
*7570 FILLER_0_51_237
*7571 FILLER_0_51_249
*7572 FILLER_0_51_261
*7573 FILLER_0_51_27
*7574 FILLER_0_51_273
*7575 FILLER_0_51_279
*7576 FILLER_0_51_281
*7577 FILLER_0_51_293
*7578 FILLER_0_51_3
*7579 FILLER_0_51_305
*7580 FILLER_0_51_317
*7581 FILLER_0_51_329
*7582 FILLER_0_51_335
*7583 FILLER_0_51_337
*7584 FILLER_0_51_349
*7585 FILLER_0_51_361
*7586 FILLER_0_51_373
*7587 FILLER_0_51_385
*7588 FILLER_0_51_39
*7589 FILLER_0_51_391
*7590 FILLER_0_51_393
*7591 FILLER_0_51_405
*7592 FILLER_0_51_417
*7593 FILLER_0_51_429
*7594 FILLER_0_51_441
*7595 FILLER_0_51_447
*7596 FILLER_0_51_449
*7597 FILLER_0_51_461
*7598 FILLER_0_51_473
*7599 FILLER_0_51_485
*7600 FILLER_0_51_497
*7601 FILLER_0_51_503
*7602 FILLER_0_51_505
*7603 FILLER_0_51_51
*7604 FILLER_0_51_517
*7605 FILLER_0_51_529
*7606 FILLER_0_51_541
*7607 FILLER_0_51_55
*7608 FILLER_0_51_553
*7609 FILLER_0_51_559
*7610 FILLER_0_51_561
*7611 FILLER_0_51_57
*7612 FILLER_0_51_573
*7613 FILLER_0_51_585
*7614 FILLER_0_51_597
*7615 FILLER_0_51_609
*7616 FILLER_0_51_615
*7617 FILLER_0_51_617
*7618 FILLER_0_51_629
*7619 FILLER_0_51_641
*7620 FILLER_0_51_653
*7621 FILLER_0_51_665
*7622 FILLER_0_51_671
*7623 FILLER_0_51_673
*7624 FILLER_0_51_685
*7625 FILLER_0_51_69
*7626 FILLER_0_51_697
*7627 FILLER_0_51_709
*7628 FILLER_0_51_721
*7629 FILLER_0_51_727
*7630 FILLER_0_51_729
*7631 FILLER_0_51_741
*7632 FILLER_0_51_753
*7633 FILLER_0_51_765
*7634 FILLER_0_51_777
*7635 FILLER_0_51_783
*7636 FILLER_0_51_785
*7637 FILLER_0_51_797
*7638 FILLER_0_51_809
*7639 FILLER_0_51_81
*7640 FILLER_0_51_821
*7641 FILLER_0_51_93
*7642 FILLER_0_52_109
*7643 FILLER_0_52_121
*7644 FILLER_0_52_133
*7645 FILLER_0_52_139
*7646 FILLER_0_52_141
*7647 FILLER_0_52_15
*7648 FILLER_0_52_153
*7649 FILLER_0_52_165
*7650 FILLER_0_52_177
*7651 FILLER_0_52_189
*7652 FILLER_0_52_195
*7653 FILLER_0_52_197
*7654 FILLER_0_52_209
*7655 FILLER_0_52_221
*7656 FILLER_0_52_233
*7657 FILLER_0_52_245
*7658 FILLER_0_52_251
*7659 FILLER_0_52_253
*7660 FILLER_0_52_265
*7661 FILLER_0_52_27
*7662 FILLER_0_52_277
*7663 FILLER_0_52_289
*7664 FILLER_0_52_29
*7665 FILLER_0_52_3
*7666 FILLER_0_52_301
*7667 FILLER_0_52_307
*7668 FILLER_0_52_309
*7669 FILLER_0_52_321
*7670 FILLER_0_52_333
*7671 FILLER_0_52_345
*7672 FILLER_0_52_357
*7673 FILLER_0_52_363
*7674 FILLER_0_52_365
*7675 FILLER_0_52_377
*7676 FILLER_0_52_389
*7677 FILLER_0_52_401
*7678 FILLER_0_52_41
*7679 FILLER_0_52_413
*7680 FILLER_0_52_419
*7681 FILLER_0_52_421
*7682 FILLER_0_52_433
*7683 FILLER_0_52_445
*7684 FILLER_0_52_457
*7685 FILLER_0_52_469
*7686 FILLER_0_52_475
*7687 FILLER_0_52_477
*7688 FILLER_0_52_489
*7689 FILLER_0_52_501
*7690 FILLER_0_52_513
*7691 FILLER_0_52_525
*7692 FILLER_0_52_53
*7693 FILLER_0_52_531
*7694 FILLER_0_52_533
*7695 FILLER_0_52_545
*7696 FILLER_0_52_557
*7697 FILLER_0_52_569
*7698 FILLER_0_52_581
*7699 FILLER_0_52_587
*7700 FILLER_0_52_589
*7701 FILLER_0_52_601
*7702 FILLER_0_52_613
*7703 FILLER_0_52_625
*7704 FILLER_0_52_637
*7705 FILLER_0_52_643
*7706 FILLER_0_52_645
*7707 FILLER_0_52_65
*7708 FILLER_0_52_657
*7709 FILLER_0_52_669
*7710 FILLER_0_52_681
*7711 FILLER_0_52_693
*7712 FILLER_0_52_699
*7713 FILLER_0_52_701
*7714 FILLER_0_52_713
*7715 FILLER_0_52_725
*7716 FILLER_0_52_737
*7717 FILLER_0_52_749
*7718 FILLER_0_52_755
*7719 FILLER_0_52_757
*7720 FILLER_0_52_769
*7721 FILLER_0_52_77
*7722 FILLER_0_52_781
*7723 FILLER_0_52_793
*7724 FILLER_0_52_805
*7725 FILLER_0_52_811
*7726 FILLER_0_52_813
*7727 FILLER_0_52_821
*7728 FILLER_0_52_83
*7729 FILLER_0_52_85
*7730 FILLER_0_52_97
*7731 FILLER_0_53_105
*7732 FILLER_0_53_111
*7733 FILLER_0_53_113
*7734 FILLER_0_53_125
*7735 FILLER_0_53_137
*7736 FILLER_0_53_149
*7737 FILLER_0_53_15
*7738 FILLER_0_53_161
*7739 FILLER_0_53_167
*7740 FILLER_0_53_169
*7741 FILLER_0_53_181
*7742 FILLER_0_53_193
*7743 FILLER_0_53_205
*7744 FILLER_0_53_217
*7745 FILLER_0_53_223
*7746 FILLER_0_53_225
*7747 FILLER_0_53_237
*7748 FILLER_0_53_249
*7749 FILLER_0_53_261
*7750 FILLER_0_53_27
*7751 FILLER_0_53_273
*7752 FILLER_0_53_279
*7753 FILLER_0_53_281
*7754 FILLER_0_53_293
*7755 FILLER_0_53_3
*7756 FILLER_0_53_305
*7757 FILLER_0_53_317
*7758 FILLER_0_53_329
*7759 FILLER_0_53_335
*7760 FILLER_0_53_337
*7761 FILLER_0_53_349
*7762 FILLER_0_53_361
*7763 FILLER_0_53_373
*7764 FILLER_0_53_385
*7765 FILLER_0_53_39
*7766 FILLER_0_53_391
*7767 FILLER_0_53_393
*7768 FILLER_0_53_405
*7769 FILLER_0_53_417
*7770 FILLER_0_53_429
*7771 FILLER_0_53_441
*7772 FILLER_0_53_447
*7773 FILLER_0_53_449
*7774 FILLER_0_53_461
*7775 FILLER_0_53_473
*7776 FILLER_0_53_485
*7777 FILLER_0_53_497
*7778 FILLER_0_53_503
*7779 FILLER_0_53_505
*7780 FILLER_0_53_51
*7781 FILLER_0_53_517
*7782 FILLER_0_53_529
*7783 FILLER_0_53_541
*7784 FILLER_0_53_55
*7785 FILLER_0_53_553
*7786 FILLER_0_53_559
*7787 FILLER_0_53_561
*7788 FILLER_0_53_57
*7789 FILLER_0_53_573
*7790 FILLER_0_53_585
*7791 FILLER_0_53_597
*7792 FILLER_0_53_609
*7793 FILLER_0_53_615
*7794 FILLER_0_53_617
*7795 FILLER_0_53_629
*7796 FILLER_0_53_641
*7797 FILLER_0_53_653
*7798 FILLER_0_53_665
*7799 FILLER_0_53_671
*7800 FILLER_0_53_673
*7801 FILLER_0_53_685
*7802 FILLER_0_53_69
*7803 FILLER_0_53_697
*7804 FILLER_0_53_709
*7805 FILLER_0_53_721
*7806 FILLER_0_53_727
*7807 FILLER_0_53_729
*7808 FILLER_0_53_741
*7809 FILLER_0_53_753
*7810 FILLER_0_53_765
*7811 FILLER_0_53_777
*7812 FILLER_0_53_783
*7813 FILLER_0_53_785
*7814 FILLER_0_53_797
*7815 FILLER_0_53_809
*7816 FILLER_0_53_81
*7817 FILLER_0_53_821
*7818 FILLER_0_53_93
*7819 FILLER_0_54_109
*7820 FILLER_0_54_121
*7821 FILLER_0_54_133
*7822 FILLER_0_54_139
*7823 FILLER_0_54_141
*7824 FILLER_0_54_15
*7825 FILLER_0_54_153
*7826 FILLER_0_54_165
*7827 FILLER_0_54_177
*7828 FILLER_0_54_189
*7829 FILLER_0_54_195
*7830 FILLER_0_54_197
*7831 FILLER_0_54_209
*7832 FILLER_0_54_221
*7833 FILLER_0_54_233
*7834 FILLER_0_54_245
*7835 FILLER_0_54_251
*7836 FILLER_0_54_253
*7837 FILLER_0_54_265
*7838 FILLER_0_54_27
*7839 FILLER_0_54_277
*7840 FILLER_0_54_289
*7841 FILLER_0_54_29
*7842 FILLER_0_54_3
*7843 FILLER_0_54_301
*7844 FILLER_0_54_307
*7845 FILLER_0_54_309
*7846 FILLER_0_54_321
*7847 FILLER_0_54_333
*7848 FILLER_0_54_345
*7849 FILLER_0_54_357
*7850 FILLER_0_54_363
*7851 FILLER_0_54_365
*7852 FILLER_0_54_377
*7853 FILLER_0_54_389
*7854 FILLER_0_54_401
*7855 FILLER_0_54_41
*7856 FILLER_0_54_413
*7857 FILLER_0_54_419
*7858 FILLER_0_54_421
*7859 FILLER_0_54_433
*7860 FILLER_0_54_445
*7861 FILLER_0_54_457
*7862 FILLER_0_54_469
*7863 FILLER_0_54_475
*7864 FILLER_0_54_477
*7865 FILLER_0_54_489
*7866 FILLER_0_54_501
*7867 FILLER_0_54_513
*7868 FILLER_0_54_525
*7869 FILLER_0_54_53
*7870 FILLER_0_54_531
*7871 FILLER_0_54_533
*7872 FILLER_0_54_545
*7873 FILLER_0_54_557
*7874 FILLER_0_54_569
*7875 FILLER_0_54_581
*7876 FILLER_0_54_587
*7877 FILLER_0_54_589
*7878 FILLER_0_54_601
*7879 FILLER_0_54_613
*7880 FILLER_0_54_625
*7881 FILLER_0_54_637
*7882 FILLER_0_54_643
*7883 FILLER_0_54_645
*7884 FILLER_0_54_65
*7885 FILLER_0_54_657
*7886 FILLER_0_54_669
*7887 FILLER_0_54_681
*7888 FILLER_0_54_693
*7889 FILLER_0_54_699
*7890 FILLER_0_54_701
*7891 FILLER_0_54_713
*7892 FILLER_0_54_725
*7893 FILLER_0_54_737
*7894 FILLER_0_54_749
*7895 FILLER_0_54_755
*7896 FILLER_0_54_757
*7897 FILLER_0_54_769
*7898 FILLER_0_54_77
*7899 FILLER_0_54_781
*7900 FILLER_0_54_793
*7901 FILLER_0_54_805
*7902 FILLER_0_54_811
*7903 FILLER_0_54_813
*7904 FILLER_0_54_821
*7905 FILLER_0_54_83
*7906 FILLER_0_54_85
*7907 FILLER_0_54_97
*7908 FILLER_0_55_105
*7909 FILLER_0_55_111
*7910 FILLER_0_55_113
*7911 FILLER_0_55_125
*7912 FILLER_0_55_137
*7913 FILLER_0_55_149
*7914 FILLER_0_55_15
*7915 FILLER_0_55_161
*7916 FILLER_0_55_167
*7917 FILLER_0_55_169
*7918 FILLER_0_55_181
*7919 FILLER_0_55_193
*7920 FILLER_0_55_205
*7921 FILLER_0_55_217
*7922 FILLER_0_55_223
*7923 FILLER_0_55_225
*7924 FILLER_0_55_237
*7925 FILLER_0_55_249
*7926 FILLER_0_55_261
*7927 FILLER_0_55_27
*7928 FILLER_0_55_273
*7929 FILLER_0_55_279
*7930 FILLER_0_55_281
*7931 FILLER_0_55_293
*7932 FILLER_0_55_3
*7933 FILLER_0_55_305
*7934 FILLER_0_55_317
*7935 FILLER_0_55_329
*7936 FILLER_0_55_335
*7937 FILLER_0_55_337
*7938 FILLER_0_55_349
*7939 FILLER_0_55_361
*7940 FILLER_0_55_373
*7941 FILLER_0_55_385
*7942 FILLER_0_55_39
*7943 FILLER_0_55_391
*7944 FILLER_0_55_393
*7945 FILLER_0_55_405
*7946 FILLER_0_55_417
*7947 FILLER_0_55_429
*7948 FILLER_0_55_441
*7949 FILLER_0_55_447
*7950 FILLER_0_55_449
*7951 FILLER_0_55_461
*7952 FILLER_0_55_473
*7953 FILLER_0_55_485
*7954 FILLER_0_55_497
*7955 FILLER_0_55_503
*7956 FILLER_0_55_505
*7957 FILLER_0_55_51
*7958 FILLER_0_55_517
*7959 FILLER_0_55_529
*7960 FILLER_0_55_541
*7961 FILLER_0_55_55
*7962 FILLER_0_55_553
*7963 FILLER_0_55_559
*7964 FILLER_0_55_561
*7965 FILLER_0_55_57
*7966 FILLER_0_55_573
*7967 FILLER_0_55_585
*7968 FILLER_0_55_597
*7969 FILLER_0_55_609
*7970 FILLER_0_55_615
*7971 FILLER_0_55_617
*7972 FILLER_0_55_629
*7973 FILLER_0_55_641
*7974 FILLER_0_55_653
*7975 FILLER_0_55_665
*7976 FILLER_0_55_671
*7977 FILLER_0_55_673
*7978 FILLER_0_55_685
*7979 FILLER_0_55_69
*7980 FILLER_0_55_697
*7981 FILLER_0_55_709
*7982 FILLER_0_55_721
*7983 FILLER_0_55_727
*7984 FILLER_0_55_729
*7985 FILLER_0_55_741
*7986 FILLER_0_55_753
*7987 FILLER_0_55_765
*7988 FILLER_0_55_777
*7989 FILLER_0_55_783
*7990 FILLER_0_55_785
*7991 FILLER_0_55_797
*7992 FILLER_0_55_809
*7993 FILLER_0_55_81
*7994 FILLER_0_55_821
*7995 FILLER_0_55_93
*7996 FILLER_0_56_109
*7997 FILLER_0_56_121
*7998 FILLER_0_56_133
*7999 FILLER_0_56_139
*8000 FILLER_0_56_141
*8001 FILLER_0_56_15
*8002 FILLER_0_56_153
*8003 FILLER_0_56_165
*8004 FILLER_0_56_177
*8005 FILLER_0_56_189
*8006 FILLER_0_56_195
*8007 FILLER_0_56_197
*8008 FILLER_0_56_209
*8009 FILLER_0_56_221
*8010 FILLER_0_56_233
*8011 FILLER_0_56_245
*8012 FILLER_0_56_251
*8013 FILLER_0_56_253
*8014 FILLER_0_56_265
*8015 FILLER_0_56_27
*8016 FILLER_0_56_277
*8017 FILLER_0_56_289
*8018 FILLER_0_56_29
*8019 FILLER_0_56_3
*8020 FILLER_0_56_301
*8021 FILLER_0_56_307
*8022 FILLER_0_56_309
*8023 FILLER_0_56_321
*8024 FILLER_0_56_333
*8025 FILLER_0_56_345
*8026 FILLER_0_56_357
*8027 FILLER_0_56_363
*8028 FILLER_0_56_365
*8029 FILLER_0_56_377
*8030 FILLER_0_56_389
*8031 FILLER_0_56_401
*8032 FILLER_0_56_41
*8033 FILLER_0_56_413
*8034 FILLER_0_56_419
*8035 FILLER_0_56_421
*8036 FILLER_0_56_433
*8037 FILLER_0_56_445
*8038 FILLER_0_56_457
*8039 FILLER_0_56_469
*8040 FILLER_0_56_475
*8041 FILLER_0_56_477
*8042 FILLER_0_56_489
*8043 FILLER_0_56_501
*8044 FILLER_0_56_513
*8045 FILLER_0_56_525
*8046 FILLER_0_56_53
*8047 FILLER_0_56_531
*8048 FILLER_0_56_533
*8049 FILLER_0_56_545
*8050 FILLER_0_56_557
*8051 FILLER_0_56_569
*8052 FILLER_0_56_581
*8053 FILLER_0_56_587
*8054 FILLER_0_56_589
*8055 FILLER_0_56_601
*8056 FILLER_0_56_613
*8057 FILLER_0_56_625
*8058 FILLER_0_56_637
*8059 FILLER_0_56_643
*8060 FILLER_0_56_645
*8061 FILLER_0_56_65
*8062 FILLER_0_56_657
*8063 FILLER_0_56_669
*8064 FILLER_0_56_681
*8065 FILLER_0_56_693
*8066 FILLER_0_56_699
*8067 FILLER_0_56_701
*8068 FILLER_0_56_713
*8069 FILLER_0_56_725
*8070 FILLER_0_56_737
*8071 FILLER_0_56_749
*8072 FILLER_0_56_755
*8073 FILLER_0_56_757
*8074 FILLER_0_56_769
*8075 FILLER_0_56_77
*8076 FILLER_0_56_781
*8077 FILLER_0_56_793
*8078 FILLER_0_56_805
*8079 FILLER_0_56_811
*8080 FILLER_0_56_813
*8081 FILLER_0_56_821
*8082 FILLER_0_56_83
*8083 FILLER_0_56_85
*8084 FILLER_0_56_97
*8085 FILLER_0_57_105
*8086 FILLER_0_57_111
*8087 FILLER_0_57_113
*8088 FILLER_0_57_125
*8089 FILLER_0_57_137
*8090 FILLER_0_57_149
*8091 FILLER_0_57_15
*8092 FILLER_0_57_161
*8093 FILLER_0_57_167
*8094 FILLER_0_57_169
*8095 FILLER_0_57_181
*8096 FILLER_0_57_193
*8097 FILLER_0_57_205
*8098 FILLER_0_57_217
*8099 FILLER_0_57_223
*8100 FILLER_0_57_225
*8101 FILLER_0_57_237
*8102 FILLER_0_57_249
*8103 FILLER_0_57_261
*8104 FILLER_0_57_27
*8105 FILLER_0_57_273
*8106 FILLER_0_57_279
*8107 FILLER_0_57_281
*8108 FILLER_0_57_293
*8109 FILLER_0_57_3
*8110 FILLER_0_57_305
*8111 FILLER_0_57_317
*8112 FILLER_0_57_329
*8113 FILLER_0_57_335
*8114 FILLER_0_57_337
*8115 FILLER_0_57_349
*8116 FILLER_0_57_361
*8117 FILLER_0_57_373
*8118 FILLER_0_57_385
*8119 FILLER_0_57_39
*8120 FILLER_0_57_391
*8121 FILLER_0_57_393
*8122 FILLER_0_57_405
*8123 FILLER_0_57_417
*8124 FILLER_0_57_429
*8125 FILLER_0_57_441
*8126 FILLER_0_57_447
*8127 FILLER_0_57_449
*8128 FILLER_0_57_461
*8129 FILLER_0_57_473
*8130 FILLER_0_57_485
*8131 FILLER_0_57_497
*8132 FILLER_0_57_503
*8133 FILLER_0_57_505
*8134 FILLER_0_57_51
*8135 FILLER_0_57_517
*8136 FILLER_0_57_529
*8137 FILLER_0_57_541
*8138 FILLER_0_57_55
*8139 FILLER_0_57_553
*8140 FILLER_0_57_559
*8141 FILLER_0_57_561
*8142 FILLER_0_57_57
*8143 FILLER_0_57_573
*8144 FILLER_0_57_585
*8145 FILLER_0_57_597
*8146 FILLER_0_57_609
*8147 FILLER_0_57_615
*8148 FILLER_0_57_617
*8149 FILLER_0_57_629
*8150 FILLER_0_57_641
*8151 FILLER_0_57_653
*8152 FILLER_0_57_665
*8153 FILLER_0_57_671
*8154 FILLER_0_57_673
*8155 FILLER_0_57_685
*8156 FILLER_0_57_69
*8157 FILLER_0_57_697
*8158 FILLER_0_57_709
*8159 FILLER_0_57_721
*8160 FILLER_0_57_727
*8161 FILLER_0_57_729
*8162 FILLER_0_57_741
*8163 FILLER_0_57_753
*8164 FILLER_0_57_765
*8165 FILLER_0_57_777
*8166 FILLER_0_57_783
*8167 FILLER_0_57_785
*8168 FILLER_0_57_797
*8169 FILLER_0_57_809
*8170 FILLER_0_57_81
*8171 FILLER_0_57_821
*8172 FILLER_0_57_93
*8173 FILLER_0_58_109
*8174 FILLER_0_58_121
*8175 FILLER_0_58_133
*8176 FILLER_0_58_139
*8177 FILLER_0_58_141
*8178 FILLER_0_58_15
*8179 FILLER_0_58_153
*8180 FILLER_0_58_165
*8181 FILLER_0_58_177
*8182 FILLER_0_58_189
*8183 FILLER_0_58_195
*8184 FILLER_0_58_197
*8185 FILLER_0_58_209
*8186 FILLER_0_58_221
*8187 FILLER_0_58_233
*8188 FILLER_0_58_245
*8189 FILLER_0_58_251
*8190 FILLER_0_58_253
*8191 FILLER_0_58_265
*8192 FILLER_0_58_27
*8193 FILLER_0_58_277
*8194 FILLER_0_58_289
*8195 FILLER_0_58_29
*8196 FILLER_0_58_3
*8197 FILLER_0_58_301
*8198 FILLER_0_58_307
*8199 FILLER_0_58_309
*8200 FILLER_0_58_321
*8201 FILLER_0_58_333
*8202 FILLER_0_58_345
*8203 FILLER_0_58_357
*8204 FILLER_0_58_363
*8205 FILLER_0_58_365
*8206 FILLER_0_58_377
*8207 FILLER_0_58_389
*8208 FILLER_0_58_401
*8209 FILLER_0_58_41
*8210 FILLER_0_58_413
*8211 FILLER_0_58_419
*8212 FILLER_0_58_421
*8213 FILLER_0_58_433
*8214 FILLER_0_58_445
*8215 FILLER_0_58_457
*8216 FILLER_0_58_469
*8217 FILLER_0_58_475
*8218 FILLER_0_58_477
*8219 FILLER_0_58_489
*8220 FILLER_0_58_501
*8221 FILLER_0_58_513
*8222 FILLER_0_58_525
*8223 FILLER_0_58_53
*8224 FILLER_0_58_531
*8225 FILLER_0_58_533
*8226 FILLER_0_58_545
*8227 FILLER_0_58_557
*8228 FILLER_0_58_569
*8229 FILLER_0_58_581
*8230 FILLER_0_58_587
*8231 FILLER_0_58_589
*8232 FILLER_0_58_601
*8233 FILLER_0_58_613
*8234 FILLER_0_58_625
*8235 FILLER_0_58_637
*8236 FILLER_0_58_643
*8237 FILLER_0_58_645
*8238 FILLER_0_58_65
*8239 FILLER_0_58_657
*8240 FILLER_0_58_669
*8241 FILLER_0_58_681
*8242 FILLER_0_58_693
*8243 FILLER_0_58_699
*8244 FILLER_0_58_701
*8245 FILLER_0_58_713
*8246 FILLER_0_58_725
*8247 FILLER_0_58_737
*8248 FILLER_0_58_749
*8249 FILLER_0_58_755
*8250 FILLER_0_58_757
*8251 FILLER_0_58_769
*8252 FILLER_0_58_77
*8253 FILLER_0_58_781
*8254 FILLER_0_58_793
*8255 FILLER_0_58_805
*8256 FILLER_0_58_811
*8257 FILLER_0_58_813
*8258 FILLER_0_58_821
*8259 FILLER_0_58_83
*8260 FILLER_0_58_85
*8261 FILLER_0_58_97
*8262 FILLER_0_59_105
*8263 FILLER_0_59_111
*8264 FILLER_0_59_113
*8265 FILLER_0_59_125
*8266 FILLER_0_59_137
*8267 FILLER_0_59_149
*8268 FILLER_0_59_161
*8269 FILLER_0_59_167
*8270 FILLER_0_59_169
*8271 FILLER_0_59_18
*8272 FILLER_0_59_181
*8273 FILLER_0_59_193
*8274 FILLER_0_59_205
*8275 FILLER_0_59_217
*8276 FILLER_0_59_223
*8277 FILLER_0_59_225
*8278 FILLER_0_59_237
*8279 FILLER_0_59_249
*8280 FILLER_0_59_261
*8281 FILLER_0_59_273
*8282 FILLER_0_59_279
*8283 FILLER_0_59_281
*8284 FILLER_0_59_293
*8285 FILLER_0_59_30
*8286 FILLER_0_59_305
*8287 FILLER_0_59_317
*8288 FILLER_0_59_329
*8289 FILLER_0_59_335
*8290 FILLER_0_59_337
*8291 FILLER_0_59_349
*8292 FILLER_0_59_361
*8293 FILLER_0_59_373
*8294 FILLER_0_59_385
*8295 FILLER_0_59_391
*8296 FILLER_0_59_393
*8297 FILLER_0_59_405
*8298 FILLER_0_59_417
*8299 FILLER_0_59_42
*8300 FILLER_0_59_429
*8301 FILLER_0_59_441
*8302 FILLER_0_59_447
*8303 FILLER_0_59_449
*8304 FILLER_0_59_461
*8305 FILLER_0_59_473
*8306 FILLER_0_59_485
*8307 FILLER_0_59_497
*8308 FILLER_0_59_503
*8309 FILLER_0_59_505
*8310 FILLER_0_59_517
*8311 FILLER_0_59_529
*8312 FILLER_0_59_54
*8313 FILLER_0_59_541
*8314 FILLER_0_59_553
*8315 FILLER_0_59_559
*8316 FILLER_0_59_561
*8317 FILLER_0_59_57
*8318 FILLER_0_59_573
*8319 FILLER_0_59_585
*8320 FILLER_0_59_597
*8321 FILLER_0_59_6
*8322 FILLER_0_59_609
*8323 FILLER_0_59_615
*8324 FILLER_0_59_617
*8325 FILLER_0_59_629
*8326 FILLER_0_59_641
*8327 FILLER_0_59_653
*8328 FILLER_0_59_665
*8329 FILLER_0_59_671
*8330 FILLER_0_59_673
*8331 FILLER_0_59_685
*8332 FILLER_0_59_69
*8333 FILLER_0_59_697
*8334 FILLER_0_59_709
*8335 FILLER_0_59_721
*8336 FILLER_0_59_727
*8337 FILLER_0_59_729
*8338 FILLER_0_59_741
*8339 FILLER_0_59_753
*8340 FILLER_0_59_765
*8341 FILLER_0_59_777
*8342 FILLER_0_59_783
*8343 FILLER_0_59_785
*8344 FILLER_0_59_797
*8345 FILLER_0_59_809
*8346 FILLER_0_59_81
*8347 FILLER_0_59_821
*8348 FILLER_0_59_93
*8349 FILLER_0_5_105
*8350 FILLER_0_5_111
*8351 FILLER_0_5_113
*8352 FILLER_0_5_125
*8353 FILLER_0_5_137
*8354 FILLER_0_5_149
*8355 FILLER_0_5_15
*8356 FILLER_0_5_161
*8357 FILLER_0_5_167
*8358 FILLER_0_5_169
*8359 FILLER_0_5_181
*8360 FILLER_0_5_193
*8361 FILLER_0_5_205
*8362 FILLER_0_5_217
*8363 FILLER_0_5_223
*8364 FILLER_0_5_225
*8365 FILLER_0_5_237
*8366 FILLER_0_5_249
*8367 FILLER_0_5_261
*8368 FILLER_0_5_27
*8369 FILLER_0_5_273
*8370 FILLER_0_5_279
*8371 FILLER_0_5_281
*8372 FILLER_0_5_293
*8373 FILLER_0_5_3
*8374 FILLER_0_5_305
*8375 FILLER_0_5_317
*8376 FILLER_0_5_329
*8377 FILLER_0_5_335
*8378 FILLER_0_5_337
*8379 FILLER_0_5_349
*8380 FILLER_0_5_361
*8381 FILLER_0_5_373
*8382 FILLER_0_5_385
*8383 FILLER_0_5_39
*8384 FILLER_0_5_391
*8385 FILLER_0_5_393
*8386 FILLER_0_5_405
*8387 FILLER_0_5_417
*8388 FILLER_0_5_429
*8389 FILLER_0_5_441
*8390 FILLER_0_5_447
*8391 FILLER_0_5_449
*8392 FILLER_0_5_461
*8393 FILLER_0_5_473
*8394 FILLER_0_5_485
*8395 FILLER_0_5_497
*8396 FILLER_0_5_503
*8397 FILLER_0_5_505
*8398 FILLER_0_5_51
*8399 FILLER_0_5_517
*8400 FILLER_0_5_529
*8401 FILLER_0_5_541
*8402 FILLER_0_5_55
*8403 FILLER_0_5_553
*8404 FILLER_0_5_559
*8405 FILLER_0_5_561
*8406 FILLER_0_5_57
*8407 FILLER_0_5_573
*8408 FILLER_0_5_585
*8409 FILLER_0_5_597
*8410 FILLER_0_5_609
*8411 FILLER_0_5_615
*8412 FILLER_0_5_617
*8413 FILLER_0_5_629
*8414 FILLER_0_5_641
*8415 FILLER_0_5_653
*8416 FILLER_0_5_665
*8417 FILLER_0_5_671
*8418 FILLER_0_5_673
*8419 FILLER_0_5_685
*8420 FILLER_0_5_69
*8421 FILLER_0_5_697
*8422 FILLER_0_5_709
*8423 FILLER_0_5_721
*8424 FILLER_0_5_727
*8425 FILLER_0_5_729
*8426 FILLER_0_5_741
*8427 FILLER_0_5_753
*8428 FILLER_0_5_765
*8429 FILLER_0_5_777
*8430 FILLER_0_5_783
*8431 FILLER_0_5_785
*8432 FILLER_0_5_797
*8433 FILLER_0_5_809
*8434 FILLER_0_5_81
*8435 FILLER_0_5_821
*8436 FILLER_0_5_93
*8437 FILLER_0_60_109
*8438 FILLER_0_60_121
*8439 FILLER_0_60_133
*8440 FILLER_0_60_139
*8441 FILLER_0_60_141
*8442 FILLER_0_60_15
*8443 FILLER_0_60_153
*8444 FILLER_0_60_165
*8445 FILLER_0_60_177
*8446 FILLER_0_60_189
*8447 FILLER_0_60_195
*8448 FILLER_0_60_197
*8449 FILLER_0_60_209
*8450 FILLER_0_60_221
*8451 FILLER_0_60_233
*8452 FILLER_0_60_245
*8453 FILLER_0_60_251
*8454 FILLER_0_60_253
*8455 FILLER_0_60_265
*8456 FILLER_0_60_27
*8457 FILLER_0_60_277
*8458 FILLER_0_60_289
*8459 FILLER_0_60_29
*8460 FILLER_0_60_3
*8461 FILLER_0_60_301
*8462 FILLER_0_60_307
*8463 FILLER_0_60_309
*8464 FILLER_0_60_321
*8465 FILLER_0_60_333
*8466 FILLER_0_60_345
*8467 FILLER_0_60_357
*8468 FILLER_0_60_363
*8469 FILLER_0_60_365
*8470 FILLER_0_60_377
*8471 FILLER_0_60_389
*8472 FILLER_0_60_401
*8473 FILLER_0_60_41
*8474 FILLER_0_60_413
*8475 FILLER_0_60_419
*8476 FILLER_0_60_421
*8477 FILLER_0_60_433
*8478 FILLER_0_60_445
*8479 FILLER_0_60_457
*8480 FILLER_0_60_469
*8481 FILLER_0_60_475
*8482 FILLER_0_60_477
*8483 FILLER_0_60_489
*8484 FILLER_0_60_501
*8485 FILLER_0_60_513
*8486 FILLER_0_60_525
*8487 FILLER_0_60_53
*8488 FILLER_0_60_531
*8489 FILLER_0_60_533
*8490 FILLER_0_60_545
*8491 FILLER_0_60_557
*8492 FILLER_0_60_569
*8493 FILLER_0_60_581
*8494 FILLER_0_60_587
*8495 FILLER_0_60_589
*8496 FILLER_0_60_601
*8497 FILLER_0_60_613
*8498 FILLER_0_60_625
*8499 FILLER_0_60_637
*8500 FILLER_0_60_643
*8501 FILLER_0_60_645
*8502 FILLER_0_60_65
*8503 FILLER_0_60_657
*8504 FILLER_0_60_669
*8505 FILLER_0_60_681
*8506 FILLER_0_60_693
*8507 FILLER_0_60_699
*8508 FILLER_0_60_701
*8509 FILLER_0_60_713
*8510 FILLER_0_60_725
*8511 FILLER_0_60_737
*8512 FILLER_0_60_749
*8513 FILLER_0_60_755
*8514 FILLER_0_60_757
*8515 FILLER_0_60_769
*8516 FILLER_0_60_77
*8517 FILLER_0_60_781
*8518 FILLER_0_60_793
*8519 FILLER_0_60_805
*8520 FILLER_0_60_811
*8521 FILLER_0_60_813
*8522 FILLER_0_60_821
*8523 FILLER_0_60_83
*8524 FILLER_0_60_85
*8525 FILLER_0_60_97
*8526 FILLER_0_61_105
*8527 FILLER_0_61_111
*8528 FILLER_0_61_113
*8529 FILLER_0_61_125
*8530 FILLER_0_61_137
*8531 FILLER_0_61_149
*8532 FILLER_0_61_15
*8533 FILLER_0_61_161
*8534 FILLER_0_61_167
*8535 FILLER_0_61_169
*8536 FILLER_0_61_181
*8537 FILLER_0_61_193
*8538 FILLER_0_61_205
*8539 FILLER_0_61_217
*8540 FILLER_0_61_223
*8541 FILLER_0_61_225
*8542 FILLER_0_61_237
*8543 FILLER_0_61_249
*8544 FILLER_0_61_261
*8545 FILLER_0_61_27
*8546 FILLER_0_61_273
*8547 FILLER_0_61_279
*8548 FILLER_0_61_281
*8549 FILLER_0_61_293
*8550 FILLER_0_61_3
*8551 FILLER_0_61_305
*8552 FILLER_0_61_317
*8553 FILLER_0_61_329
*8554 FILLER_0_61_335
*8555 FILLER_0_61_337
*8556 FILLER_0_61_349
*8557 FILLER_0_61_361
*8558 FILLER_0_61_373
*8559 FILLER_0_61_385
*8560 FILLER_0_61_39
*8561 FILLER_0_61_391
*8562 FILLER_0_61_393
*8563 FILLER_0_61_405
*8564 FILLER_0_61_417
*8565 FILLER_0_61_429
*8566 FILLER_0_61_441
*8567 FILLER_0_61_447
*8568 FILLER_0_61_449
*8569 FILLER_0_61_461
*8570 FILLER_0_61_473
*8571 FILLER_0_61_485
*8572 FILLER_0_61_497
*8573 FILLER_0_61_503
*8574 FILLER_0_61_505
*8575 FILLER_0_61_51
*8576 FILLER_0_61_517
*8577 FILLER_0_61_529
*8578 FILLER_0_61_541
*8579 FILLER_0_61_55
*8580 FILLER_0_61_553
*8581 FILLER_0_61_559
*8582 FILLER_0_61_561
*8583 FILLER_0_61_57
*8584 FILLER_0_61_573
*8585 FILLER_0_61_585
*8586 FILLER_0_61_597
*8587 FILLER_0_61_609
*8588 FILLER_0_61_615
*8589 FILLER_0_61_617
*8590 FILLER_0_61_629
*8591 FILLER_0_61_641
*8592 FILLER_0_61_653
*8593 FILLER_0_61_665
*8594 FILLER_0_61_671
*8595 FILLER_0_61_673
*8596 FILLER_0_61_685
*8597 FILLER_0_61_69
*8598 FILLER_0_61_697
*8599 FILLER_0_61_709
*8600 FILLER_0_61_721
*8601 FILLER_0_61_727
*8602 FILLER_0_61_729
*8603 FILLER_0_61_741
*8604 FILLER_0_61_753
*8605 FILLER_0_61_765
*8606 FILLER_0_61_777
*8607 FILLER_0_61_783
*8608 FILLER_0_61_785
*8609 FILLER_0_61_797
*8610 FILLER_0_61_809
*8611 FILLER_0_61_81
*8612 FILLER_0_61_821
*8613 FILLER_0_61_93
*8614 FILLER_0_62_109
*8615 FILLER_0_62_121
*8616 FILLER_0_62_133
*8617 FILLER_0_62_139
*8618 FILLER_0_62_141
*8619 FILLER_0_62_15
*8620 FILLER_0_62_153
*8621 FILLER_0_62_165
*8622 FILLER_0_62_177
*8623 FILLER_0_62_189
*8624 FILLER_0_62_195
*8625 FILLER_0_62_197
*8626 FILLER_0_62_209
*8627 FILLER_0_62_221
*8628 FILLER_0_62_233
*8629 FILLER_0_62_245
*8630 FILLER_0_62_251
*8631 FILLER_0_62_253
*8632 FILLER_0_62_265
*8633 FILLER_0_62_27
*8634 FILLER_0_62_277
*8635 FILLER_0_62_289
*8636 FILLER_0_62_29
*8637 FILLER_0_62_3
*8638 FILLER_0_62_301
*8639 FILLER_0_62_307
*8640 FILLER_0_62_309
*8641 FILLER_0_62_321
*8642 FILLER_0_62_333
*8643 FILLER_0_62_345
*8644 FILLER_0_62_357
*8645 FILLER_0_62_363
*8646 FILLER_0_62_365
*8647 FILLER_0_62_377
*8648 FILLER_0_62_389
*8649 FILLER_0_62_401
*8650 FILLER_0_62_41
*8651 FILLER_0_62_413
*8652 FILLER_0_62_419
*8653 FILLER_0_62_421
*8654 FILLER_0_62_433
*8655 FILLER_0_62_445
*8656 FILLER_0_62_457
*8657 FILLER_0_62_469
*8658 FILLER_0_62_475
*8659 FILLER_0_62_477
*8660 FILLER_0_62_489
*8661 FILLER_0_62_501
*8662 FILLER_0_62_513
*8663 FILLER_0_62_525
*8664 FILLER_0_62_53
*8665 FILLER_0_62_531
*8666 FILLER_0_62_533
*8667 FILLER_0_62_545
*8668 FILLER_0_62_557
*8669 FILLER_0_62_569
*8670 FILLER_0_62_581
*8671 FILLER_0_62_587
*8672 FILLER_0_62_589
*8673 FILLER_0_62_601
*8674 FILLER_0_62_613
*8675 FILLER_0_62_625
*8676 FILLER_0_62_637
*8677 FILLER_0_62_643
*8678 FILLER_0_62_645
*8679 FILLER_0_62_65
*8680 FILLER_0_62_657
*8681 FILLER_0_62_669
*8682 FILLER_0_62_681
*8683 FILLER_0_62_693
*8684 FILLER_0_62_699
*8685 FILLER_0_62_701
*8686 FILLER_0_62_713
*8687 FILLER_0_62_725
*8688 FILLER_0_62_737
*8689 FILLER_0_62_749
*8690 FILLER_0_62_755
*8691 FILLER_0_62_757
*8692 FILLER_0_62_769
*8693 FILLER_0_62_77
*8694 FILLER_0_62_781
*8695 FILLER_0_62_793
*8696 FILLER_0_62_805
*8697 FILLER_0_62_811
*8698 FILLER_0_62_813
*8699 FILLER_0_62_821
*8700 FILLER_0_62_83
*8701 FILLER_0_62_85
*8702 FILLER_0_62_97
*8703 FILLER_0_63_105
*8704 FILLER_0_63_111
*8705 FILLER_0_63_113
*8706 FILLER_0_63_125
*8707 FILLER_0_63_137
*8708 FILLER_0_63_149
*8709 FILLER_0_63_15
*8710 FILLER_0_63_161
*8711 FILLER_0_63_167
*8712 FILLER_0_63_169
*8713 FILLER_0_63_181
*8714 FILLER_0_63_193
*8715 FILLER_0_63_205
*8716 FILLER_0_63_217
*8717 FILLER_0_63_223
*8718 FILLER_0_63_225
*8719 FILLER_0_63_237
*8720 FILLER_0_63_249
*8721 FILLER_0_63_261
*8722 FILLER_0_63_27
*8723 FILLER_0_63_273
*8724 FILLER_0_63_279
*8725 FILLER_0_63_281
*8726 FILLER_0_63_293
*8727 FILLER_0_63_3
*8728 FILLER_0_63_305
*8729 FILLER_0_63_317
*8730 FILLER_0_63_329
*8731 FILLER_0_63_335
*8732 FILLER_0_63_337
*8733 FILLER_0_63_349
*8734 FILLER_0_63_361
*8735 FILLER_0_63_373
*8736 FILLER_0_63_385
*8737 FILLER_0_63_39
*8738 FILLER_0_63_391
*8739 FILLER_0_63_393
*8740 FILLER_0_63_405
*8741 FILLER_0_63_417
*8742 FILLER_0_63_429
*8743 FILLER_0_63_441
*8744 FILLER_0_63_447
*8745 FILLER_0_63_449
*8746 FILLER_0_63_461
*8747 FILLER_0_63_473
*8748 FILLER_0_63_485
*8749 FILLER_0_63_497
*8750 FILLER_0_63_503
*8751 FILLER_0_63_505
*8752 FILLER_0_63_51
*8753 FILLER_0_63_517
*8754 FILLER_0_63_529
*8755 FILLER_0_63_541
*8756 FILLER_0_63_55
*8757 FILLER_0_63_553
*8758 FILLER_0_63_559
*8759 FILLER_0_63_561
*8760 FILLER_0_63_57
*8761 FILLER_0_63_573
*8762 FILLER_0_63_585
*8763 FILLER_0_63_597
*8764 FILLER_0_63_609
*8765 FILLER_0_63_615
*8766 FILLER_0_63_617
*8767 FILLER_0_63_629
*8768 FILLER_0_63_641
*8769 FILLER_0_63_653
*8770 FILLER_0_63_665
*8771 FILLER_0_63_671
*8772 FILLER_0_63_673
*8773 FILLER_0_63_685
*8774 FILLER_0_63_69
*8775 FILLER_0_63_697
*8776 FILLER_0_63_709
*8777 FILLER_0_63_721
*8778 FILLER_0_63_727
*8779 FILLER_0_63_729
*8780 FILLER_0_63_741
*8781 FILLER_0_63_753
*8782 FILLER_0_63_765
*8783 FILLER_0_63_777
*8784 FILLER_0_63_783
*8785 FILLER_0_63_785
*8786 FILLER_0_63_797
*8787 FILLER_0_63_809
*8788 FILLER_0_63_81
*8789 FILLER_0_63_821
*8790 FILLER_0_63_93
*8791 FILLER_0_64_109
*8792 FILLER_0_64_121
*8793 FILLER_0_64_133
*8794 FILLER_0_64_139
*8795 FILLER_0_64_141
*8796 FILLER_0_64_15
*8797 FILLER_0_64_153
*8798 FILLER_0_64_165
*8799 FILLER_0_64_177
*8800 FILLER_0_64_189
*8801 FILLER_0_64_195
*8802 FILLER_0_64_197
*8803 FILLER_0_64_209
*8804 FILLER_0_64_221
*8805 FILLER_0_64_233
*8806 FILLER_0_64_245
*8807 FILLER_0_64_251
*8808 FILLER_0_64_253
*8809 FILLER_0_64_265
*8810 FILLER_0_64_27
*8811 FILLER_0_64_277
*8812 FILLER_0_64_289
*8813 FILLER_0_64_29
*8814 FILLER_0_64_3
*8815 FILLER_0_64_301
*8816 FILLER_0_64_307
*8817 FILLER_0_64_309
*8818 FILLER_0_64_321
*8819 FILLER_0_64_333
*8820 FILLER_0_64_345
*8821 FILLER_0_64_357
*8822 FILLER_0_64_363
*8823 FILLER_0_64_365
*8824 FILLER_0_64_377
*8825 FILLER_0_64_389
*8826 FILLER_0_64_401
*8827 FILLER_0_64_41
*8828 FILLER_0_64_413
*8829 FILLER_0_64_419
*8830 FILLER_0_64_421
*8831 FILLER_0_64_433
*8832 FILLER_0_64_445
*8833 FILLER_0_64_457
*8834 FILLER_0_64_469
*8835 FILLER_0_64_475
*8836 FILLER_0_64_477
*8837 FILLER_0_64_489
*8838 FILLER_0_64_501
*8839 FILLER_0_64_513
*8840 FILLER_0_64_525
*8841 FILLER_0_64_53
*8842 FILLER_0_64_531
*8843 FILLER_0_64_533
*8844 FILLER_0_64_545
*8845 FILLER_0_64_557
*8846 FILLER_0_64_569
*8847 FILLER_0_64_581
*8848 FILLER_0_64_587
*8849 FILLER_0_64_589
*8850 FILLER_0_64_601
*8851 FILLER_0_64_613
*8852 FILLER_0_64_625
*8853 FILLER_0_64_637
*8854 FILLER_0_64_643
*8855 FILLER_0_64_645
*8856 FILLER_0_64_65
*8857 FILLER_0_64_657
*8858 FILLER_0_64_669
*8859 FILLER_0_64_681
*8860 FILLER_0_64_693
*8861 FILLER_0_64_699
*8862 FILLER_0_64_701
*8863 FILLER_0_64_713
*8864 FILLER_0_64_725
*8865 FILLER_0_64_737
*8866 FILLER_0_64_749
*8867 FILLER_0_64_755
*8868 FILLER_0_64_757
*8869 FILLER_0_64_769
*8870 FILLER_0_64_77
*8871 FILLER_0_64_781
*8872 FILLER_0_64_793
*8873 FILLER_0_64_805
*8874 FILLER_0_64_811
*8875 FILLER_0_64_813
*8876 FILLER_0_64_821
*8877 FILLER_0_64_83
*8878 FILLER_0_64_85
*8879 FILLER_0_64_97
*8880 FILLER_0_65_105
*8881 FILLER_0_65_111
*8882 FILLER_0_65_113
*8883 FILLER_0_65_125
*8884 FILLER_0_65_137
*8885 FILLER_0_65_149
*8886 FILLER_0_65_15
*8887 FILLER_0_65_161
*8888 FILLER_0_65_167
*8889 FILLER_0_65_169
*8890 FILLER_0_65_181
*8891 FILLER_0_65_193
*8892 FILLER_0_65_205
*8893 FILLER_0_65_217
*8894 FILLER_0_65_223
*8895 FILLER_0_65_225
*8896 FILLER_0_65_237
*8897 FILLER_0_65_249
*8898 FILLER_0_65_261
*8899 FILLER_0_65_27
*8900 FILLER_0_65_273
*8901 FILLER_0_65_279
*8902 FILLER_0_65_281
*8903 FILLER_0_65_293
*8904 FILLER_0_65_3
*8905 FILLER_0_65_305
*8906 FILLER_0_65_317
*8907 FILLER_0_65_329
*8908 FILLER_0_65_335
*8909 FILLER_0_65_337
*8910 FILLER_0_65_349
*8911 FILLER_0_65_361
*8912 FILLER_0_65_373
*8913 FILLER_0_65_385
*8914 FILLER_0_65_39
*8915 FILLER_0_65_391
*8916 FILLER_0_65_393
*8917 FILLER_0_65_405
*8918 FILLER_0_65_417
*8919 FILLER_0_65_429
*8920 FILLER_0_65_441
*8921 FILLER_0_65_447
*8922 FILLER_0_65_449
*8923 FILLER_0_65_461
*8924 FILLER_0_65_473
*8925 FILLER_0_65_485
*8926 FILLER_0_65_497
*8927 FILLER_0_65_503
*8928 FILLER_0_65_505
*8929 FILLER_0_65_51
*8930 FILLER_0_65_517
*8931 FILLER_0_65_529
*8932 FILLER_0_65_541
*8933 FILLER_0_65_55
*8934 FILLER_0_65_553
*8935 FILLER_0_65_559
*8936 FILLER_0_65_561
*8937 FILLER_0_65_57
*8938 FILLER_0_65_573
*8939 FILLER_0_65_585
*8940 FILLER_0_65_597
*8941 FILLER_0_65_609
*8942 FILLER_0_65_615
*8943 FILLER_0_65_617
*8944 FILLER_0_65_629
*8945 FILLER_0_65_641
*8946 FILLER_0_65_653
*8947 FILLER_0_65_665
*8948 FILLER_0_65_671
*8949 FILLER_0_65_673
*8950 FILLER_0_65_685
*8951 FILLER_0_65_69
*8952 FILLER_0_65_697
*8953 FILLER_0_65_709
*8954 FILLER_0_65_721
*8955 FILLER_0_65_727
*8956 FILLER_0_65_729
*8957 FILLER_0_65_741
*8958 FILLER_0_65_753
*8959 FILLER_0_65_765
*8960 FILLER_0_65_777
*8961 FILLER_0_65_783
*8962 FILLER_0_65_785
*8963 FILLER_0_65_797
*8964 FILLER_0_65_809
*8965 FILLER_0_65_81
*8966 FILLER_0_65_821
*8967 FILLER_0_65_93
*8968 FILLER_0_66_109
*8969 FILLER_0_66_121
*8970 FILLER_0_66_133
*8971 FILLER_0_66_139
*8972 FILLER_0_66_141
*8973 FILLER_0_66_15
*8974 FILLER_0_66_153
*8975 FILLER_0_66_165
*8976 FILLER_0_66_177
*8977 FILLER_0_66_189
*8978 FILLER_0_66_195
*8979 FILLER_0_66_197
*8980 FILLER_0_66_209
*8981 FILLER_0_66_221
*8982 FILLER_0_66_233
*8983 FILLER_0_66_245
*8984 FILLER_0_66_251
*8985 FILLER_0_66_253
*8986 FILLER_0_66_265
*8987 FILLER_0_66_27
*8988 FILLER_0_66_277
*8989 FILLER_0_66_289
*8990 FILLER_0_66_29
*8991 FILLER_0_66_3
*8992 FILLER_0_66_301
*8993 FILLER_0_66_307
*8994 FILLER_0_66_309
*8995 FILLER_0_66_321
*8996 FILLER_0_66_333
*8997 FILLER_0_66_345
*8998 FILLER_0_66_357
*8999 FILLER_0_66_363
*9000 FILLER_0_66_365
*9001 FILLER_0_66_377
*9002 FILLER_0_66_389
*9003 FILLER_0_66_401
*9004 FILLER_0_66_41
*9005 FILLER_0_66_413
*9006 FILLER_0_66_419
*9007 FILLER_0_66_421
*9008 FILLER_0_66_433
*9009 FILLER_0_66_445
*9010 FILLER_0_66_457
*9011 FILLER_0_66_469
*9012 FILLER_0_66_475
*9013 FILLER_0_66_477
*9014 FILLER_0_66_489
*9015 FILLER_0_66_501
*9016 FILLER_0_66_513
*9017 FILLER_0_66_525
*9018 FILLER_0_66_53
*9019 FILLER_0_66_531
*9020 FILLER_0_66_533
*9021 FILLER_0_66_545
*9022 FILLER_0_66_557
*9023 FILLER_0_66_569
*9024 FILLER_0_66_581
*9025 FILLER_0_66_587
*9026 FILLER_0_66_589
*9027 FILLER_0_66_601
*9028 FILLER_0_66_613
*9029 FILLER_0_66_625
*9030 FILLER_0_66_637
*9031 FILLER_0_66_643
*9032 FILLER_0_66_645
*9033 FILLER_0_66_65
*9034 FILLER_0_66_657
*9035 FILLER_0_66_669
*9036 FILLER_0_66_681
*9037 FILLER_0_66_693
*9038 FILLER_0_66_699
*9039 FILLER_0_66_701
*9040 FILLER_0_66_713
*9041 FILLER_0_66_725
*9042 FILLER_0_66_737
*9043 FILLER_0_66_749
*9044 FILLER_0_66_755
*9045 FILLER_0_66_757
*9046 FILLER_0_66_769
*9047 FILLER_0_66_77
*9048 FILLER_0_66_781
*9049 FILLER_0_66_793
*9050 FILLER_0_66_805
*9051 FILLER_0_66_811
*9052 FILLER_0_66_813
*9053 FILLER_0_66_821
*9054 FILLER_0_66_83
*9055 FILLER_0_66_85
*9056 FILLER_0_66_97
*9057 FILLER_0_67_105
*9058 FILLER_0_67_111
*9059 FILLER_0_67_113
*9060 FILLER_0_67_125
*9061 FILLER_0_67_137
*9062 FILLER_0_67_149
*9063 FILLER_0_67_15
*9064 FILLER_0_67_161
*9065 FILLER_0_67_167
*9066 FILLER_0_67_169
*9067 FILLER_0_67_181
*9068 FILLER_0_67_193
*9069 FILLER_0_67_205
*9070 FILLER_0_67_217
*9071 FILLER_0_67_223
*9072 FILLER_0_67_225
*9073 FILLER_0_67_237
*9074 FILLER_0_67_249
*9075 FILLER_0_67_261
*9076 FILLER_0_67_27
*9077 FILLER_0_67_273
*9078 FILLER_0_67_279
*9079 FILLER_0_67_281
*9080 FILLER_0_67_293
*9081 FILLER_0_67_3
*9082 FILLER_0_67_305
*9083 FILLER_0_67_317
*9084 FILLER_0_67_329
*9085 FILLER_0_67_335
*9086 FILLER_0_67_337
*9087 FILLER_0_67_349
*9088 FILLER_0_67_361
*9089 FILLER_0_67_373
*9090 FILLER_0_67_385
*9091 FILLER_0_67_39
*9092 FILLER_0_67_391
*9093 FILLER_0_67_393
*9094 FILLER_0_67_405
*9095 FILLER_0_67_417
*9096 FILLER_0_67_429
*9097 FILLER_0_67_441
*9098 FILLER_0_67_447
*9099 FILLER_0_67_449
*9100 FILLER_0_67_461
*9101 FILLER_0_67_473
*9102 FILLER_0_67_485
*9103 FILLER_0_67_497
*9104 FILLER_0_67_503
*9105 FILLER_0_67_505
*9106 FILLER_0_67_51
*9107 FILLER_0_67_517
*9108 FILLER_0_67_529
*9109 FILLER_0_67_541
*9110 FILLER_0_67_55
*9111 FILLER_0_67_553
*9112 FILLER_0_67_559
*9113 FILLER_0_67_561
*9114 FILLER_0_67_57
*9115 FILLER_0_67_573
*9116 FILLER_0_67_585
*9117 FILLER_0_67_597
*9118 FILLER_0_67_609
*9119 FILLER_0_67_615
*9120 FILLER_0_67_617
*9121 FILLER_0_67_629
*9122 FILLER_0_67_641
*9123 FILLER_0_67_653
*9124 FILLER_0_67_665
*9125 FILLER_0_67_671
*9126 FILLER_0_67_673
*9127 FILLER_0_67_685
*9128 FILLER_0_67_69
*9129 FILLER_0_67_697
*9130 FILLER_0_67_709
*9131 FILLER_0_67_721
*9132 FILLER_0_67_727
*9133 FILLER_0_67_729
*9134 FILLER_0_67_741
*9135 FILLER_0_67_753
*9136 FILLER_0_67_765
*9137 FILLER_0_67_777
*9138 FILLER_0_67_783
*9139 FILLER_0_67_785
*9140 FILLER_0_67_797
*9141 FILLER_0_67_809
*9142 FILLER_0_67_81
*9143 FILLER_0_67_821
*9144 FILLER_0_67_93
*9145 FILLER_0_68_109
*9146 FILLER_0_68_121
*9147 FILLER_0_68_133
*9148 FILLER_0_68_139
*9149 FILLER_0_68_141
*9150 FILLER_0_68_15
*9151 FILLER_0_68_153
*9152 FILLER_0_68_165
*9153 FILLER_0_68_177
*9154 FILLER_0_68_189
*9155 FILLER_0_68_195
*9156 FILLER_0_68_197
*9157 FILLER_0_68_209
*9158 FILLER_0_68_221
*9159 FILLER_0_68_233
*9160 FILLER_0_68_245
*9161 FILLER_0_68_251
*9162 FILLER_0_68_253
*9163 FILLER_0_68_265
*9164 FILLER_0_68_27
*9165 FILLER_0_68_277
*9166 FILLER_0_68_289
*9167 FILLER_0_68_29
*9168 FILLER_0_68_3
*9169 FILLER_0_68_301
*9170 FILLER_0_68_307
*9171 FILLER_0_68_309
*9172 FILLER_0_68_321
*9173 FILLER_0_68_333
*9174 FILLER_0_68_345
*9175 FILLER_0_68_357
*9176 FILLER_0_68_363
*9177 FILLER_0_68_365
*9178 FILLER_0_68_377
*9179 FILLER_0_68_389
*9180 FILLER_0_68_401
*9181 FILLER_0_68_41
*9182 FILLER_0_68_413
*9183 FILLER_0_68_419
*9184 FILLER_0_68_421
*9185 FILLER_0_68_433
*9186 FILLER_0_68_445
*9187 FILLER_0_68_457
*9188 FILLER_0_68_469
*9189 FILLER_0_68_475
*9190 FILLER_0_68_477
*9191 FILLER_0_68_489
*9192 FILLER_0_68_501
*9193 FILLER_0_68_513
*9194 FILLER_0_68_525
*9195 FILLER_0_68_53
*9196 FILLER_0_68_531
*9197 FILLER_0_68_533
*9198 FILLER_0_68_545
*9199 FILLER_0_68_557
*9200 FILLER_0_68_569
*9201 FILLER_0_68_581
*9202 FILLER_0_68_587
*9203 FILLER_0_68_589
*9204 FILLER_0_68_601
*9205 FILLER_0_68_613
*9206 FILLER_0_68_625
*9207 FILLER_0_68_637
*9208 FILLER_0_68_643
*9209 FILLER_0_68_645
*9210 FILLER_0_68_65
*9211 FILLER_0_68_657
*9212 FILLER_0_68_669
*9213 FILLER_0_68_681
*9214 FILLER_0_68_693
*9215 FILLER_0_68_699
*9216 FILLER_0_68_701
*9217 FILLER_0_68_713
*9218 FILLER_0_68_725
*9219 FILLER_0_68_737
*9220 FILLER_0_68_749
*9221 FILLER_0_68_755
*9222 FILLER_0_68_757
*9223 FILLER_0_68_769
*9224 FILLER_0_68_77
*9225 FILLER_0_68_781
*9226 FILLER_0_68_793
*9227 FILLER_0_68_805
*9228 FILLER_0_68_811
*9229 FILLER_0_68_813
*9230 FILLER_0_68_821
*9231 FILLER_0_68_83
*9232 FILLER_0_68_85
*9233 FILLER_0_68_97
*9234 FILLER_0_69_105
*9235 FILLER_0_69_111
*9236 FILLER_0_69_113
*9237 FILLER_0_69_125
*9238 FILLER_0_69_137
*9239 FILLER_0_69_149
*9240 FILLER_0_69_15
*9241 FILLER_0_69_161
*9242 FILLER_0_69_167
*9243 FILLER_0_69_169
*9244 FILLER_0_69_181
*9245 FILLER_0_69_193
*9246 FILLER_0_69_205
*9247 FILLER_0_69_217
*9248 FILLER_0_69_223
*9249 FILLER_0_69_225
*9250 FILLER_0_69_237
*9251 FILLER_0_69_249
*9252 FILLER_0_69_261
*9253 FILLER_0_69_27
*9254 FILLER_0_69_273
*9255 FILLER_0_69_279
*9256 FILLER_0_69_281
*9257 FILLER_0_69_293
*9258 FILLER_0_69_3
*9259 FILLER_0_69_305
*9260 FILLER_0_69_317
*9261 FILLER_0_69_329
*9262 FILLER_0_69_335
*9263 FILLER_0_69_337
*9264 FILLER_0_69_349
*9265 FILLER_0_69_361
*9266 FILLER_0_69_373
*9267 FILLER_0_69_385
*9268 FILLER_0_69_39
*9269 FILLER_0_69_391
*9270 FILLER_0_69_393
*9271 FILLER_0_69_405
*9272 FILLER_0_69_417
*9273 FILLER_0_69_429
*9274 FILLER_0_69_441
*9275 FILLER_0_69_447
*9276 FILLER_0_69_449
*9277 FILLER_0_69_461
*9278 FILLER_0_69_473
*9279 FILLER_0_69_485
*9280 FILLER_0_69_497
*9281 FILLER_0_69_503
*9282 FILLER_0_69_505
*9283 FILLER_0_69_51
*9284 FILLER_0_69_517
*9285 FILLER_0_69_529
*9286 FILLER_0_69_541
*9287 FILLER_0_69_55
*9288 FILLER_0_69_553
*9289 FILLER_0_69_559
*9290 FILLER_0_69_561
*9291 FILLER_0_69_57
*9292 FILLER_0_69_573
*9293 FILLER_0_69_585
*9294 FILLER_0_69_597
*9295 FILLER_0_69_609
*9296 FILLER_0_69_615
*9297 FILLER_0_69_617
*9298 FILLER_0_69_629
*9299 FILLER_0_69_641
*9300 FILLER_0_69_653
*9301 FILLER_0_69_665
*9302 FILLER_0_69_671
*9303 FILLER_0_69_673
*9304 FILLER_0_69_685
*9305 FILLER_0_69_69
*9306 FILLER_0_69_697
*9307 FILLER_0_69_709
*9308 FILLER_0_69_721
*9309 FILLER_0_69_727
*9310 FILLER_0_69_729
*9311 FILLER_0_69_741
*9312 FILLER_0_69_753
*9313 FILLER_0_69_765
*9314 FILLER_0_69_777
*9315 FILLER_0_69_783
*9316 FILLER_0_69_785
*9317 FILLER_0_69_797
*9318 FILLER_0_69_809
*9319 FILLER_0_69_81
*9320 FILLER_0_69_821
*9321 FILLER_0_69_93
*9322 FILLER_0_6_109
*9323 FILLER_0_6_121
*9324 FILLER_0_6_133
*9325 FILLER_0_6_139
*9326 FILLER_0_6_141
*9327 FILLER_0_6_15
*9328 FILLER_0_6_153
*9329 FILLER_0_6_165
*9330 FILLER_0_6_177
*9331 FILLER_0_6_189
*9332 FILLER_0_6_195
*9333 FILLER_0_6_197
*9334 FILLER_0_6_209
*9335 FILLER_0_6_221
*9336 FILLER_0_6_233
*9337 FILLER_0_6_245
*9338 FILLER_0_6_251
*9339 FILLER_0_6_253
*9340 FILLER_0_6_265
*9341 FILLER_0_6_27
*9342 FILLER_0_6_277
*9343 FILLER_0_6_289
*9344 FILLER_0_6_29
*9345 FILLER_0_6_3
*9346 FILLER_0_6_301
*9347 FILLER_0_6_307
*9348 FILLER_0_6_309
*9349 FILLER_0_6_321
*9350 FILLER_0_6_333
*9351 FILLER_0_6_345
*9352 FILLER_0_6_357
*9353 FILLER_0_6_363
*9354 FILLER_0_6_365
*9355 FILLER_0_6_377
*9356 FILLER_0_6_389
*9357 FILLER_0_6_401
*9358 FILLER_0_6_41
*9359 FILLER_0_6_413
*9360 FILLER_0_6_419
*9361 FILLER_0_6_421
*9362 FILLER_0_6_433
*9363 FILLER_0_6_445
*9364 FILLER_0_6_457
*9365 FILLER_0_6_469
*9366 FILLER_0_6_475
*9367 FILLER_0_6_477
*9368 FILLER_0_6_489
*9369 FILLER_0_6_501
*9370 FILLER_0_6_513
*9371 FILLER_0_6_525
*9372 FILLER_0_6_53
*9373 FILLER_0_6_531
*9374 FILLER_0_6_533
*9375 FILLER_0_6_545
*9376 FILLER_0_6_557
*9377 FILLER_0_6_569
*9378 FILLER_0_6_581
*9379 FILLER_0_6_587
*9380 FILLER_0_6_589
*9381 FILLER_0_6_601
*9382 FILLER_0_6_613
*9383 FILLER_0_6_625
*9384 FILLER_0_6_637
*9385 FILLER_0_6_643
*9386 FILLER_0_6_645
*9387 FILLER_0_6_65
*9388 FILLER_0_6_657
*9389 FILLER_0_6_669
*9390 FILLER_0_6_681
*9391 FILLER_0_6_693
*9392 FILLER_0_6_699
*9393 FILLER_0_6_701
*9394 FILLER_0_6_713
*9395 FILLER_0_6_725
*9396 FILLER_0_6_737
*9397 FILLER_0_6_749
*9398 FILLER_0_6_755
*9399 FILLER_0_6_757
*9400 FILLER_0_6_769
*9401 FILLER_0_6_77
*9402 FILLER_0_6_781
*9403 FILLER_0_6_793
*9404 FILLER_0_6_805
*9405 FILLER_0_6_811
*9406 FILLER_0_6_813
*9407 FILLER_0_6_821
*9408 FILLER_0_6_83
*9409 FILLER_0_6_85
*9410 FILLER_0_6_97
*9411 FILLER_0_70_109
*9412 FILLER_0_70_121
*9413 FILLER_0_70_133
*9414 FILLER_0_70_139
*9415 FILLER_0_70_141
*9416 FILLER_0_70_15
*9417 FILLER_0_70_153
*9418 FILLER_0_70_165
*9419 FILLER_0_70_177
*9420 FILLER_0_70_189
*9421 FILLER_0_70_195
*9422 FILLER_0_70_197
*9423 FILLER_0_70_209
*9424 FILLER_0_70_221
*9425 FILLER_0_70_233
*9426 FILLER_0_70_245
*9427 FILLER_0_70_251
*9428 FILLER_0_70_253
*9429 FILLER_0_70_265
*9430 FILLER_0_70_27
*9431 FILLER_0_70_277
*9432 FILLER_0_70_289
*9433 FILLER_0_70_29
*9434 FILLER_0_70_3
*9435 FILLER_0_70_301
*9436 FILLER_0_70_307
*9437 FILLER_0_70_309
*9438 FILLER_0_70_321
*9439 FILLER_0_70_333
*9440 FILLER_0_70_345
*9441 FILLER_0_70_357
*9442 FILLER_0_70_363
*9443 FILLER_0_70_365
*9444 FILLER_0_70_377
*9445 FILLER_0_70_389
*9446 FILLER_0_70_401
*9447 FILLER_0_70_41
*9448 FILLER_0_70_413
*9449 FILLER_0_70_419
*9450 FILLER_0_70_421
*9451 FILLER_0_70_433
*9452 FILLER_0_70_445
*9453 FILLER_0_70_457
*9454 FILLER_0_70_469
*9455 FILLER_0_70_475
*9456 FILLER_0_70_477
*9457 FILLER_0_70_489
*9458 FILLER_0_70_501
*9459 FILLER_0_70_513
*9460 FILLER_0_70_525
*9461 FILLER_0_70_53
*9462 FILLER_0_70_531
*9463 FILLER_0_70_533
*9464 FILLER_0_70_545
*9465 FILLER_0_70_557
*9466 FILLER_0_70_569
*9467 FILLER_0_70_581
*9468 FILLER_0_70_587
*9469 FILLER_0_70_589
*9470 FILLER_0_70_601
*9471 FILLER_0_70_613
*9472 FILLER_0_70_625
*9473 FILLER_0_70_637
*9474 FILLER_0_70_643
*9475 FILLER_0_70_645
*9476 FILLER_0_70_65
*9477 FILLER_0_70_657
*9478 FILLER_0_70_669
*9479 FILLER_0_70_681
*9480 FILLER_0_70_693
*9481 FILLER_0_70_699
*9482 FILLER_0_70_701
*9483 FILLER_0_70_713
*9484 FILLER_0_70_725
*9485 FILLER_0_70_737
*9486 FILLER_0_70_749
*9487 FILLER_0_70_755
*9488 FILLER_0_70_757
*9489 FILLER_0_70_769
*9490 FILLER_0_70_77
*9491 FILLER_0_70_781
*9492 FILLER_0_70_793
*9493 FILLER_0_70_805
*9494 FILLER_0_70_811
*9495 FILLER_0_70_813
*9496 FILLER_0_70_83
*9497 FILLER_0_70_85
*9498 FILLER_0_70_97
*9499 FILLER_0_71_105
*9500 FILLER_0_71_111
*9501 FILLER_0_71_113
*9502 FILLER_0_71_125
*9503 FILLER_0_71_137
*9504 FILLER_0_71_149
*9505 FILLER_0_71_15
*9506 FILLER_0_71_161
*9507 FILLER_0_71_167
*9508 FILLER_0_71_169
*9509 FILLER_0_71_181
*9510 FILLER_0_71_193
*9511 FILLER_0_71_205
*9512 FILLER_0_71_217
*9513 FILLER_0_71_223
*9514 FILLER_0_71_225
*9515 FILLER_0_71_237
*9516 FILLER_0_71_249
*9517 FILLER_0_71_261
*9518 FILLER_0_71_27
*9519 FILLER_0_71_273
*9520 FILLER_0_71_279
*9521 FILLER_0_71_281
*9522 FILLER_0_71_293
*9523 FILLER_0_71_3
*9524 FILLER_0_71_305
*9525 FILLER_0_71_317
*9526 FILLER_0_71_329
*9527 FILLER_0_71_335
*9528 FILLER_0_71_337
*9529 FILLER_0_71_349
*9530 FILLER_0_71_361
*9531 FILLER_0_71_373
*9532 FILLER_0_71_385
*9533 FILLER_0_71_39
*9534 FILLER_0_71_391
*9535 FILLER_0_71_393
*9536 FILLER_0_71_405
*9537 FILLER_0_71_417
*9538 FILLER_0_71_429
*9539 FILLER_0_71_441
*9540 FILLER_0_71_447
*9541 FILLER_0_71_449
*9542 FILLER_0_71_461
*9543 FILLER_0_71_473
*9544 FILLER_0_71_485
*9545 FILLER_0_71_497
*9546 FILLER_0_71_503
*9547 FILLER_0_71_505
*9548 FILLER_0_71_51
*9549 FILLER_0_71_517
*9550 FILLER_0_71_529
*9551 FILLER_0_71_541
*9552 FILLER_0_71_55
*9553 FILLER_0_71_553
*9554 FILLER_0_71_559
*9555 FILLER_0_71_561
*9556 FILLER_0_71_57
*9557 FILLER_0_71_573
*9558 FILLER_0_71_585
*9559 FILLER_0_71_597
*9560 FILLER_0_71_609
*9561 FILLER_0_71_615
*9562 FILLER_0_71_617
*9563 FILLER_0_71_629
*9564 FILLER_0_71_641
*9565 FILLER_0_71_653
*9566 FILLER_0_71_665
*9567 FILLER_0_71_671
*9568 FILLER_0_71_673
*9569 FILLER_0_71_685
*9570 FILLER_0_71_69
*9571 FILLER_0_71_697
*9572 FILLER_0_71_709
*9573 FILLER_0_71_721
*9574 FILLER_0_71_727
*9575 FILLER_0_71_729
*9576 FILLER_0_71_741
*9577 FILLER_0_71_753
*9578 FILLER_0_71_765
*9579 FILLER_0_71_777
*9580 FILLER_0_71_783
*9581 FILLER_0_71_785
*9582 FILLER_0_71_797
*9583 FILLER_0_71_809
*9584 FILLER_0_71_81
*9585 FILLER_0_71_821
*9586 FILLER_0_71_93
*9587 FILLER_0_72_109
*9588 FILLER_0_72_121
*9589 FILLER_0_72_133
*9590 FILLER_0_72_139
*9591 FILLER_0_72_141
*9592 FILLER_0_72_15
*9593 FILLER_0_72_153
*9594 FILLER_0_72_165
*9595 FILLER_0_72_177
*9596 FILLER_0_72_189
*9597 FILLER_0_72_195
*9598 FILLER_0_72_197
*9599 FILLER_0_72_209
*9600 FILLER_0_72_221
*9601 FILLER_0_72_233
*9602 FILLER_0_72_245
*9603 FILLER_0_72_251
*9604 FILLER_0_72_253
*9605 FILLER_0_72_265
*9606 FILLER_0_72_27
*9607 FILLER_0_72_277
*9608 FILLER_0_72_289
*9609 FILLER_0_72_29
*9610 FILLER_0_72_3
*9611 FILLER_0_72_301
*9612 FILLER_0_72_307
*9613 FILLER_0_72_309
*9614 FILLER_0_72_321
*9615 FILLER_0_72_333
*9616 FILLER_0_72_345
*9617 FILLER_0_72_357
*9618 FILLER_0_72_363
*9619 FILLER_0_72_365
*9620 FILLER_0_72_377
*9621 FILLER_0_72_389
*9622 FILLER_0_72_401
*9623 FILLER_0_72_41
*9624 FILLER_0_72_413
*9625 FILLER_0_72_419
*9626 FILLER_0_72_421
*9627 FILLER_0_72_433
*9628 FILLER_0_72_445
*9629 FILLER_0_72_457
*9630 FILLER_0_72_469
*9631 FILLER_0_72_475
*9632 FILLER_0_72_477
*9633 FILLER_0_72_489
*9634 FILLER_0_72_501
*9635 FILLER_0_72_513
*9636 FILLER_0_72_525
*9637 FILLER_0_72_53
*9638 FILLER_0_72_531
*9639 FILLER_0_72_533
*9640 FILLER_0_72_545
*9641 FILLER_0_72_557
*9642 FILLER_0_72_569
*9643 FILLER_0_72_581
*9644 FILLER_0_72_587
*9645 FILLER_0_72_589
*9646 FILLER_0_72_601
*9647 FILLER_0_72_613
*9648 FILLER_0_72_625
*9649 FILLER_0_72_637
*9650 FILLER_0_72_643
*9651 FILLER_0_72_645
*9652 FILLER_0_72_65
*9653 FILLER_0_72_657
*9654 FILLER_0_72_669
*9655 FILLER_0_72_681
*9656 FILLER_0_72_693
*9657 FILLER_0_72_699
*9658 FILLER_0_72_701
*9659 FILLER_0_72_713
*9660 FILLER_0_72_725
*9661 FILLER_0_72_737
*9662 FILLER_0_72_749
*9663 FILLER_0_72_755
*9664 FILLER_0_72_757
*9665 FILLER_0_72_769
*9666 FILLER_0_72_77
*9667 FILLER_0_72_781
*9668 FILLER_0_72_793
*9669 FILLER_0_72_805
*9670 FILLER_0_72_811
*9671 FILLER_0_72_813
*9672 FILLER_0_72_821
*9673 FILLER_0_72_83
*9674 FILLER_0_72_85
*9675 FILLER_0_72_97
*9676 FILLER_0_73_105
*9677 FILLER_0_73_111
*9678 FILLER_0_73_113
*9679 FILLER_0_73_125
*9680 FILLER_0_73_137
*9681 FILLER_0_73_149
*9682 FILLER_0_73_15
*9683 FILLER_0_73_161
*9684 FILLER_0_73_167
*9685 FILLER_0_73_169
*9686 FILLER_0_73_181
*9687 FILLER_0_73_193
*9688 FILLER_0_73_205
*9689 FILLER_0_73_217
*9690 FILLER_0_73_223
*9691 FILLER_0_73_225
*9692 FILLER_0_73_237
*9693 FILLER_0_73_249
*9694 FILLER_0_73_261
*9695 FILLER_0_73_27
*9696 FILLER_0_73_273
*9697 FILLER_0_73_279
*9698 FILLER_0_73_281
*9699 FILLER_0_73_293
*9700 FILLER_0_73_3
*9701 FILLER_0_73_305
*9702 FILLER_0_73_317
*9703 FILLER_0_73_329
*9704 FILLER_0_73_335
*9705 FILLER_0_73_337
*9706 FILLER_0_73_349
*9707 FILLER_0_73_361
*9708 FILLER_0_73_373
*9709 FILLER_0_73_385
*9710 FILLER_0_73_39
*9711 FILLER_0_73_391
*9712 FILLER_0_73_393
*9713 FILLER_0_73_405
*9714 FILLER_0_73_417
*9715 FILLER_0_73_429
*9716 FILLER_0_73_441
*9717 FILLER_0_73_447
*9718 FILLER_0_73_449
*9719 FILLER_0_73_461
*9720 FILLER_0_73_473
*9721 FILLER_0_73_485
*9722 FILLER_0_73_497
*9723 FILLER_0_73_503
*9724 FILLER_0_73_505
*9725 FILLER_0_73_51
*9726 FILLER_0_73_517
*9727 FILLER_0_73_529
*9728 FILLER_0_73_541
*9729 FILLER_0_73_55
*9730 FILLER_0_73_553
*9731 FILLER_0_73_559
*9732 FILLER_0_73_561
*9733 FILLER_0_73_57
*9734 FILLER_0_73_573
*9735 FILLER_0_73_585
*9736 FILLER_0_73_597
*9737 FILLER_0_73_609
*9738 FILLER_0_73_615
*9739 FILLER_0_73_617
*9740 FILLER_0_73_629
*9741 FILLER_0_73_641
*9742 FILLER_0_73_653
*9743 FILLER_0_73_665
*9744 FILLER_0_73_671
*9745 FILLER_0_73_673
*9746 FILLER_0_73_685
*9747 FILLER_0_73_69
*9748 FILLER_0_73_697
*9749 FILLER_0_73_709
*9750 FILLER_0_73_721
*9751 FILLER_0_73_727
*9752 FILLER_0_73_729
*9753 FILLER_0_73_741
*9754 FILLER_0_73_753
*9755 FILLER_0_73_765
*9756 FILLER_0_73_777
*9757 FILLER_0_73_783
*9758 FILLER_0_73_785
*9759 FILLER_0_73_797
*9760 FILLER_0_73_809
*9761 FILLER_0_73_81
*9762 FILLER_0_73_821
*9763 FILLER_0_73_93
*9764 FILLER_0_74_109
*9765 FILLER_0_74_121
*9766 FILLER_0_74_133
*9767 FILLER_0_74_139
*9768 FILLER_0_74_141
*9769 FILLER_0_74_15
*9770 FILLER_0_74_153
*9771 FILLER_0_74_165
*9772 FILLER_0_74_177
*9773 FILLER_0_74_189
*9774 FILLER_0_74_195
*9775 FILLER_0_74_197
*9776 FILLER_0_74_209
*9777 FILLER_0_74_221
*9778 FILLER_0_74_233
*9779 FILLER_0_74_245
*9780 FILLER_0_74_251
*9781 FILLER_0_74_253
*9782 FILLER_0_74_265
*9783 FILLER_0_74_27
*9784 FILLER_0_74_277
*9785 FILLER_0_74_289
*9786 FILLER_0_74_29
*9787 FILLER_0_74_3
*9788 FILLER_0_74_301
*9789 FILLER_0_74_307
*9790 FILLER_0_74_309
*9791 FILLER_0_74_321
*9792 FILLER_0_74_333
*9793 FILLER_0_74_345
*9794 FILLER_0_74_357
*9795 FILLER_0_74_363
*9796 FILLER_0_74_365
*9797 FILLER_0_74_377
*9798 FILLER_0_74_389
*9799 FILLER_0_74_401
*9800 FILLER_0_74_41
*9801 FILLER_0_74_413
*9802 FILLER_0_74_419
*9803 FILLER_0_74_421
*9804 FILLER_0_74_433
*9805 FILLER_0_74_445
*9806 FILLER_0_74_457
*9807 FILLER_0_74_469
*9808 FILLER_0_74_475
*9809 FILLER_0_74_477
*9810 FILLER_0_74_489
*9811 FILLER_0_74_501
*9812 FILLER_0_74_513
*9813 FILLER_0_74_525
*9814 FILLER_0_74_53
*9815 FILLER_0_74_531
*9816 FILLER_0_74_533
*9817 FILLER_0_74_545
*9818 FILLER_0_74_557
*9819 FILLER_0_74_569
*9820 FILLER_0_74_581
*9821 FILLER_0_74_587
*9822 FILLER_0_74_589
*9823 FILLER_0_74_601
*9824 FILLER_0_74_613
*9825 FILLER_0_74_625
*9826 FILLER_0_74_637
*9827 FILLER_0_74_643
*9828 FILLER_0_74_645
*9829 FILLER_0_74_65
*9830 FILLER_0_74_657
*9831 FILLER_0_74_669
*9832 FILLER_0_74_681
*9833 FILLER_0_74_693
*9834 FILLER_0_74_699
*9835 FILLER_0_74_701
*9836 FILLER_0_74_713
*9837 FILLER_0_74_725
*9838 FILLER_0_74_737
*9839 FILLER_0_74_749
*9840 FILLER_0_74_755
*9841 FILLER_0_74_757
*9842 FILLER_0_74_769
*9843 FILLER_0_74_77
*9844 FILLER_0_74_781
*9845 FILLER_0_74_793
*9846 FILLER_0_74_805
*9847 FILLER_0_74_811
*9848 FILLER_0_74_813
*9849 FILLER_0_74_821
*9850 FILLER_0_74_83
*9851 FILLER_0_74_85
*9852 FILLER_0_74_97
*9853 FILLER_0_75_105
*9854 FILLER_0_75_111
*9855 FILLER_0_75_113
*9856 FILLER_0_75_125
*9857 FILLER_0_75_137
*9858 FILLER_0_75_149
*9859 FILLER_0_75_15
*9860 FILLER_0_75_161
*9861 FILLER_0_75_167
*9862 FILLER_0_75_169
*9863 FILLER_0_75_181
*9864 FILLER_0_75_193
*9865 FILLER_0_75_205
*9866 FILLER_0_75_217
*9867 FILLER_0_75_223
*9868 FILLER_0_75_225
*9869 FILLER_0_75_237
*9870 FILLER_0_75_249
*9871 FILLER_0_75_261
*9872 FILLER_0_75_27
*9873 FILLER_0_75_273
*9874 FILLER_0_75_279
*9875 FILLER_0_75_281
*9876 FILLER_0_75_293
*9877 FILLER_0_75_3
*9878 FILLER_0_75_305
*9879 FILLER_0_75_317
*9880 FILLER_0_75_329
*9881 FILLER_0_75_335
*9882 FILLER_0_75_337
*9883 FILLER_0_75_349
*9884 FILLER_0_75_361
*9885 FILLER_0_75_373
*9886 FILLER_0_75_385
*9887 FILLER_0_75_39
*9888 FILLER_0_75_391
*9889 FILLER_0_75_393
*9890 FILLER_0_75_405
*9891 FILLER_0_75_417
*9892 FILLER_0_75_429
*9893 FILLER_0_75_441
*9894 FILLER_0_75_447
*9895 FILLER_0_75_449
*9896 FILLER_0_75_461
*9897 FILLER_0_75_473
*9898 FILLER_0_75_485
*9899 FILLER_0_75_497
*9900 FILLER_0_75_503
*9901 FILLER_0_75_505
*9902 FILLER_0_75_51
*9903 FILLER_0_75_517
*9904 FILLER_0_75_529
*9905 FILLER_0_75_541
*9906 FILLER_0_75_55
*9907 FILLER_0_75_553
*9908 FILLER_0_75_559
*9909 FILLER_0_75_561
*9910 FILLER_0_75_57
*9911 FILLER_0_75_573
*9912 FILLER_0_75_585
*9913 FILLER_0_75_597
*9914 FILLER_0_75_609
*9915 FILLER_0_75_615
*9916 FILLER_0_75_617
*9917 FILLER_0_75_629
*9918 FILLER_0_75_641
*9919 FILLER_0_75_653
*9920 FILLER_0_75_665
*9921 FILLER_0_75_671
*9922 FILLER_0_75_673
*9923 FILLER_0_75_685
*9924 FILLER_0_75_69
*9925 FILLER_0_75_697
*9926 FILLER_0_75_709
*9927 FILLER_0_75_721
*9928 FILLER_0_75_727
*9929 FILLER_0_75_729
*9930 FILLER_0_75_741
*9931 FILLER_0_75_753
*9932 FILLER_0_75_765
*9933 FILLER_0_75_777
*9934 FILLER_0_75_783
*9935 FILLER_0_75_785
*9936 FILLER_0_75_797
*9937 FILLER_0_75_809
*9938 FILLER_0_75_81
*9939 FILLER_0_75_821
*9940 FILLER_0_75_93
*9941 FILLER_0_76_109
*9942 FILLER_0_76_121
*9943 FILLER_0_76_133
*9944 FILLER_0_76_139
*9945 FILLER_0_76_141
*9946 FILLER_0_76_15
*9947 FILLER_0_76_153
*9948 FILLER_0_76_165
*9949 FILLER_0_76_177
*9950 FILLER_0_76_189
*9951 FILLER_0_76_195
*9952 FILLER_0_76_197
*9953 FILLER_0_76_209
*9954 FILLER_0_76_221
*9955 FILLER_0_76_233
*9956 FILLER_0_76_245
*9957 FILLER_0_76_251
*9958 FILLER_0_76_253
*9959 FILLER_0_76_265
*9960 FILLER_0_76_27
*9961 FILLER_0_76_277
*9962 FILLER_0_76_289
*9963 FILLER_0_76_29
*9964 FILLER_0_76_3
*9965 FILLER_0_76_301
*9966 FILLER_0_76_307
*9967 FILLER_0_76_309
*9968 FILLER_0_76_321
*9969 FILLER_0_76_333
*9970 FILLER_0_76_345
*9971 FILLER_0_76_357
*9972 FILLER_0_76_363
*9973 FILLER_0_76_365
*9974 FILLER_0_76_377
*9975 FILLER_0_76_389
*9976 FILLER_0_76_401
*9977 FILLER_0_76_41
*9978 FILLER_0_76_413
*9979 FILLER_0_76_419
*9980 FILLER_0_76_421
*9981 FILLER_0_76_433
*9982 FILLER_0_76_445
*9983 FILLER_0_76_457
*9984 FILLER_0_76_469
*9985 FILLER_0_76_475
*9986 FILLER_0_76_477
*9987 FILLER_0_76_489
*9988 FILLER_0_76_501
*9989 FILLER_0_76_513
*9990 FILLER_0_76_525
*9991 FILLER_0_76_53
*9992 FILLER_0_76_531
*9993 FILLER_0_76_533
*9994 FILLER_0_76_545
*9995 FILLER_0_76_557
*9996 FILLER_0_76_569
*9997 FILLER_0_76_581
*9998 FILLER_0_76_587
*9999 FILLER_0_76_589
*10000 FILLER_0_76_601
*10001 FILLER_0_76_613
*10002 FILLER_0_76_625
*10003 FILLER_0_76_637
*10004 FILLER_0_76_643
*10005 FILLER_0_76_645
*10006 FILLER_0_76_65
*10007 FILLER_0_76_657
*10008 FILLER_0_76_669
*10009 FILLER_0_76_681
*10010 FILLER_0_76_693
*10011 FILLER_0_76_699
*10012 FILLER_0_76_701
*10013 FILLER_0_76_713
*10014 FILLER_0_76_725
*10015 FILLER_0_76_737
*10016 FILLER_0_76_749
*10017 FILLER_0_76_755
*10018 FILLER_0_76_757
*10019 FILLER_0_76_769
*10020 FILLER_0_76_77
*10021 FILLER_0_76_781
*10022 FILLER_0_76_793
*10023 FILLER_0_76_805
*10024 FILLER_0_76_811
*10025 FILLER_0_76_813
*10026 FILLER_0_76_821
*10027 FILLER_0_76_83
*10028 FILLER_0_76_85
*10029 FILLER_0_76_97
*10030 FILLER_0_77_105
*10031 FILLER_0_77_111
*10032 FILLER_0_77_113
*10033 FILLER_0_77_125
*10034 FILLER_0_77_137
*10035 FILLER_0_77_149
*10036 FILLER_0_77_15
*10037 FILLER_0_77_161
*10038 FILLER_0_77_167
*10039 FILLER_0_77_169
*10040 FILLER_0_77_181
*10041 FILLER_0_77_193
*10042 FILLER_0_77_205
*10043 FILLER_0_77_217
*10044 FILLER_0_77_223
*10045 FILLER_0_77_225
*10046 FILLER_0_77_237
*10047 FILLER_0_77_249
*10048 FILLER_0_77_261
*10049 FILLER_0_77_27
*10050 FILLER_0_77_273
*10051 FILLER_0_77_279
*10052 FILLER_0_77_281
*10053 FILLER_0_77_293
*10054 FILLER_0_77_3
*10055 FILLER_0_77_305
*10056 FILLER_0_77_317
*10057 FILLER_0_77_329
*10058 FILLER_0_77_335
*10059 FILLER_0_77_337
*10060 FILLER_0_77_349
*10061 FILLER_0_77_361
*10062 FILLER_0_77_373
*10063 FILLER_0_77_385
*10064 FILLER_0_77_39
*10065 FILLER_0_77_391
*10066 FILLER_0_77_393
*10067 FILLER_0_77_405
*10068 FILLER_0_77_417
*10069 FILLER_0_77_429
*10070 FILLER_0_77_441
*10071 FILLER_0_77_447
*10072 FILLER_0_77_449
*10073 FILLER_0_77_461
*10074 FILLER_0_77_473
*10075 FILLER_0_77_485
*10076 FILLER_0_77_497
*10077 FILLER_0_77_503
*10078 FILLER_0_77_505
*10079 FILLER_0_77_51
*10080 FILLER_0_77_517
*10081 FILLER_0_77_529
*10082 FILLER_0_77_541
*10083 FILLER_0_77_55
*10084 FILLER_0_77_553
*10085 FILLER_0_77_559
*10086 FILLER_0_77_561
*10087 FILLER_0_77_57
*10088 FILLER_0_77_573
*10089 FILLER_0_77_585
*10090 FILLER_0_77_597
*10091 FILLER_0_77_609
*10092 FILLER_0_77_615
*10093 FILLER_0_77_617
*10094 FILLER_0_77_629
*10095 FILLER_0_77_641
*10096 FILLER_0_77_653
*10097 FILLER_0_77_665
*10098 FILLER_0_77_671
*10099 FILLER_0_77_673
*10100 FILLER_0_77_685
*10101 FILLER_0_77_69
*10102 FILLER_0_77_697
*10103 FILLER_0_77_709
*10104 FILLER_0_77_721
*10105 FILLER_0_77_727
*10106 FILLER_0_77_729
*10107 FILLER_0_77_741
*10108 FILLER_0_77_753
*10109 FILLER_0_77_765
*10110 FILLER_0_77_777
*10111 FILLER_0_77_783
*10112 FILLER_0_77_785
*10113 FILLER_0_77_797
*10114 FILLER_0_77_809
*10115 FILLER_0_77_81
*10116 FILLER_0_77_821
*10117 FILLER_0_77_93
*10118 FILLER_0_78_109
*10119 FILLER_0_78_121
*10120 FILLER_0_78_133
*10121 FILLER_0_78_139
*10122 FILLER_0_78_141
*10123 FILLER_0_78_15
*10124 FILLER_0_78_153
*10125 FILLER_0_78_165
*10126 FILLER_0_78_177
*10127 FILLER_0_78_189
*10128 FILLER_0_78_195
*10129 FILLER_0_78_197
*10130 FILLER_0_78_209
*10131 FILLER_0_78_221
*10132 FILLER_0_78_233
*10133 FILLER_0_78_245
*10134 FILLER_0_78_251
*10135 FILLER_0_78_253
*10136 FILLER_0_78_265
*10137 FILLER_0_78_27
*10138 FILLER_0_78_277
*10139 FILLER_0_78_289
*10140 FILLER_0_78_29
*10141 FILLER_0_78_3
*10142 FILLER_0_78_301
*10143 FILLER_0_78_307
*10144 FILLER_0_78_309
*10145 FILLER_0_78_321
*10146 FILLER_0_78_333
*10147 FILLER_0_78_345
*10148 FILLER_0_78_357
*10149 FILLER_0_78_363
*10150 FILLER_0_78_365
*10151 FILLER_0_78_377
*10152 FILLER_0_78_389
*10153 FILLER_0_78_401
*10154 FILLER_0_78_41
*10155 FILLER_0_78_413
*10156 FILLER_0_78_419
*10157 FILLER_0_78_421
*10158 FILLER_0_78_433
*10159 FILLER_0_78_445
*10160 FILLER_0_78_457
*10161 FILLER_0_78_469
*10162 FILLER_0_78_475
*10163 FILLER_0_78_477
*10164 FILLER_0_78_489
*10165 FILLER_0_78_501
*10166 FILLER_0_78_513
*10167 FILLER_0_78_525
*10168 FILLER_0_78_53
*10169 FILLER_0_78_531
*10170 FILLER_0_78_533
*10171 FILLER_0_78_545
*10172 FILLER_0_78_557
*10173 FILLER_0_78_569
*10174 FILLER_0_78_581
*10175 FILLER_0_78_587
*10176 FILLER_0_78_589
*10177 FILLER_0_78_601
*10178 FILLER_0_78_613
*10179 FILLER_0_78_625
*10180 FILLER_0_78_637
*10181 FILLER_0_78_643
*10182 FILLER_0_78_645
*10183 FILLER_0_78_65
*10184 FILLER_0_78_657
*10185 FILLER_0_78_669
*10186 FILLER_0_78_681
*10187 FILLER_0_78_693
*10188 FILLER_0_78_699
*10189 FILLER_0_78_701
*10190 FILLER_0_78_713
*10191 FILLER_0_78_725
*10192 FILLER_0_78_737
*10193 FILLER_0_78_749
*10194 FILLER_0_78_755
*10195 FILLER_0_78_757
*10196 FILLER_0_78_769
*10197 FILLER_0_78_77
*10198 FILLER_0_78_781
*10199 FILLER_0_78_793
*10200 FILLER_0_78_805
*10201 FILLER_0_78_811
*10202 FILLER_0_78_813
*10203 FILLER_0_78_821
*10204 FILLER_0_78_83
*10205 FILLER_0_78_85
*10206 FILLER_0_78_97
*10207 FILLER_0_79_105
*10208 FILLER_0_79_111
*10209 FILLER_0_79_113
*10210 FILLER_0_79_125
*10211 FILLER_0_79_137
*10212 FILLER_0_79_149
*10213 FILLER_0_79_15
*10214 FILLER_0_79_161
*10215 FILLER_0_79_167
*10216 FILLER_0_79_169
*10217 FILLER_0_79_181
*10218 FILLER_0_79_193
*10219 FILLER_0_79_205
*10220 FILLER_0_79_217
*10221 FILLER_0_79_223
*10222 FILLER_0_79_225
*10223 FILLER_0_79_237
*10224 FILLER_0_79_249
*10225 FILLER_0_79_261
*10226 FILLER_0_79_27
*10227 FILLER_0_79_273
*10228 FILLER_0_79_279
*10229 FILLER_0_79_281
*10230 FILLER_0_79_293
*10231 FILLER_0_79_3
*10232 FILLER_0_79_305
*10233 FILLER_0_79_317
*10234 FILLER_0_79_329
*10235 FILLER_0_79_335
*10236 FILLER_0_79_337
*10237 FILLER_0_79_349
*10238 FILLER_0_79_361
*10239 FILLER_0_79_373
*10240 FILLER_0_79_385
*10241 FILLER_0_79_39
*10242 FILLER_0_79_391
*10243 FILLER_0_79_393
*10244 FILLER_0_79_405
*10245 FILLER_0_79_417
*10246 FILLER_0_79_429
*10247 FILLER_0_79_441
*10248 FILLER_0_79_447
*10249 FILLER_0_79_449
*10250 FILLER_0_79_461
*10251 FILLER_0_79_473
*10252 FILLER_0_79_485
*10253 FILLER_0_79_497
*10254 FILLER_0_79_503
*10255 FILLER_0_79_505
*10256 FILLER_0_79_51
*10257 FILLER_0_79_517
*10258 FILLER_0_79_529
*10259 FILLER_0_79_541
*10260 FILLER_0_79_55
*10261 FILLER_0_79_553
*10262 FILLER_0_79_559
*10263 FILLER_0_79_561
*10264 FILLER_0_79_57
*10265 FILLER_0_79_573
*10266 FILLER_0_79_585
*10267 FILLER_0_79_597
*10268 FILLER_0_79_609
*10269 FILLER_0_79_615
*10270 FILLER_0_79_617
*10271 FILLER_0_79_629
*10272 FILLER_0_79_641
*10273 FILLER_0_79_653
*10274 FILLER_0_79_665
*10275 FILLER_0_79_671
*10276 FILLER_0_79_673
*10277 FILLER_0_79_685
*10278 FILLER_0_79_69
*10279 FILLER_0_79_697
*10280 FILLER_0_79_709
*10281 FILLER_0_79_721
*10282 FILLER_0_79_727
*10283 FILLER_0_79_729
*10284 FILLER_0_79_741
*10285 FILLER_0_79_753
*10286 FILLER_0_79_765
*10287 FILLER_0_79_777
*10288 FILLER_0_79_783
*10289 FILLER_0_79_785
*10290 FILLER_0_79_797
*10291 FILLER_0_79_809
*10292 FILLER_0_79_81
*10293 FILLER_0_79_821
*10294 FILLER_0_79_93
*10295 FILLER_0_7_105
*10296 FILLER_0_7_111
*10297 FILLER_0_7_113
*10298 FILLER_0_7_125
*10299 FILLER_0_7_137
*10300 FILLER_0_7_149
*10301 FILLER_0_7_15
*10302 FILLER_0_7_161
*10303 FILLER_0_7_167
*10304 FILLER_0_7_169
*10305 FILLER_0_7_181
*10306 FILLER_0_7_193
*10307 FILLER_0_7_205
*10308 FILLER_0_7_217
*10309 FILLER_0_7_223
*10310 FILLER_0_7_225
*10311 FILLER_0_7_237
*10312 FILLER_0_7_249
*10313 FILLER_0_7_261
*10314 FILLER_0_7_27
*10315 FILLER_0_7_273
*10316 FILLER_0_7_279
*10317 FILLER_0_7_281
*10318 FILLER_0_7_293
*10319 FILLER_0_7_3
*10320 FILLER_0_7_305
*10321 FILLER_0_7_317
*10322 FILLER_0_7_329
*10323 FILLER_0_7_335
*10324 FILLER_0_7_337
*10325 FILLER_0_7_349
*10326 FILLER_0_7_361
*10327 FILLER_0_7_373
*10328 FILLER_0_7_385
*10329 FILLER_0_7_39
*10330 FILLER_0_7_391
*10331 FILLER_0_7_393
*10332 FILLER_0_7_405
*10333 FILLER_0_7_417
*10334 FILLER_0_7_429
*10335 FILLER_0_7_441
*10336 FILLER_0_7_447
*10337 FILLER_0_7_449
*10338 FILLER_0_7_461
*10339 FILLER_0_7_473
*10340 FILLER_0_7_485
*10341 FILLER_0_7_497
*10342 FILLER_0_7_503
*10343 FILLER_0_7_505
*10344 FILLER_0_7_51
*10345 FILLER_0_7_517
*10346 FILLER_0_7_529
*10347 FILLER_0_7_541
*10348 FILLER_0_7_55
*10349 FILLER_0_7_553
*10350 FILLER_0_7_559
*10351 FILLER_0_7_561
*10352 FILLER_0_7_57
*10353 FILLER_0_7_573
*10354 FILLER_0_7_585
*10355 FILLER_0_7_597
*10356 FILLER_0_7_609
*10357 FILLER_0_7_615
*10358 FILLER_0_7_617
*10359 FILLER_0_7_629
*10360 FILLER_0_7_641
*10361 FILLER_0_7_653
*10362 FILLER_0_7_665
*10363 FILLER_0_7_671
*10364 FILLER_0_7_673
*10365 FILLER_0_7_685
*10366 FILLER_0_7_69
*10367 FILLER_0_7_697
*10368 FILLER_0_7_709
*10369 FILLER_0_7_721
*10370 FILLER_0_7_727
*10371 FILLER_0_7_729
*10372 FILLER_0_7_741
*10373 FILLER_0_7_753
*10374 FILLER_0_7_765
*10375 FILLER_0_7_777
*10376 FILLER_0_7_783
*10377 FILLER_0_7_785
*10378 FILLER_0_7_797
*10379 FILLER_0_7_809
*10380 FILLER_0_7_81
*10381 FILLER_0_7_817
*10382 FILLER_0_7_93
*10383 FILLER_0_80_109
*10384 FILLER_0_80_121
*10385 FILLER_0_80_133
*10386 FILLER_0_80_139
*10387 FILLER_0_80_141
*10388 FILLER_0_80_153
*10389 FILLER_0_80_165
*10390 FILLER_0_80_177
*10391 FILLER_0_80_18
*10392 FILLER_0_80_189
*10393 FILLER_0_80_195
*10394 FILLER_0_80_197
*10395 FILLER_0_80_209
*10396 FILLER_0_80_221
*10397 FILLER_0_80_233
*10398 FILLER_0_80_245
*10399 FILLER_0_80_251
*10400 FILLER_0_80_253
*10401 FILLER_0_80_26
*10402 FILLER_0_80_265
*10403 FILLER_0_80_277
*10404 FILLER_0_80_289
*10405 FILLER_0_80_29
*10406 FILLER_0_80_301
*10407 FILLER_0_80_307
*10408 FILLER_0_80_309
*10409 FILLER_0_80_321
*10410 FILLER_0_80_333
*10411 FILLER_0_80_345
*10412 FILLER_0_80_357
*10413 FILLER_0_80_363
*10414 FILLER_0_80_365
*10415 FILLER_0_80_377
*10416 FILLER_0_80_389
*10417 FILLER_0_80_401
*10418 FILLER_0_80_41
*10419 FILLER_0_80_413
*10420 FILLER_0_80_419
*10421 FILLER_0_80_421
*10422 FILLER_0_80_433
*10423 FILLER_0_80_445
*10424 FILLER_0_80_457
*10425 FILLER_0_80_469
*10426 FILLER_0_80_475
*10427 FILLER_0_80_477
*10428 FILLER_0_80_489
*10429 FILLER_0_80_501
*10430 FILLER_0_80_513
*10431 FILLER_0_80_525
*10432 FILLER_0_80_53
*10433 FILLER_0_80_531
*10434 FILLER_0_80_533
*10435 FILLER_0_80_545
*10436 FILLER_0_80_557
*10437 FILLER_0_80_569
*10438 FILLER_0_80_581
*10439 FILLER_0_80_587
*10440 FILLER_0_80_589
*10441 FILLER_0_80_6
*10442 FILLER_0_80_601
*10443 FILLER_0_80_613
*10444 FILLER_0_80_625
*10445 FILLER_0_80_637
*10446 FILLER_0_80_643
*10447 FILLER_0_80_645
*10448 FILLER_0_80_65
*10449 FILLER_0_80_657
*10450 FILLER_0_80_669
*10451 FILLER_0_80_681
*10452 FILLER_0_80_693
*10453 FILLER_0_80_699
*10454 FILLER_0_80_701
*10455 FILLER_0_80_713
*10456 FILLER_0_80_725
*10457 FILLER_0_80_737
*10458 FILLER_0_80_749
*10459 FILLER_0_80_755
*10460 FILLER_0_80_757
*10461 FILLER_0_80_769
*10462 FILLER_0_80_77
*10463 FILLER_0_80_781
*10464 FILLER_0_80_793
*10465 FILLER_0_80_805
*10466 FILLER_0_80_811
*10467 FILLER_0_80_813
*10468 FILLER_0_80_821
*10469 FILLER_0_80_83
*10470 FILLER_0_80_85
*10471 FILLER_0_80_97
*10472 FILLER_0_81_105
*10473 FILLER_0_81_111
*10474 FILLER_0_81_113
*10475 FILLER_0_81_125
*10476 FILLER_0_81_137
*10477 FILLER_0_81_149
*10478 FILLER_0_81_15
*10479 FILLER_0_81_161
*10480 FILLER_0_81_167
*10481 FILLER_0_81_169
*10482 FILLER_0_81_181
*10483 FILLER_0_81_193
*10484 FILLER_0_81_205
*10485 FILLER_0_81_217
*10486 FILLER_0_81_223
*10487 FILLER_0_81_225
*10488 FILLER_0_81_237
*10489 FILLER_0_81_249
*10490 FILLER_0_81_261
*10491 FILLER_0_81_27
*10492 FILLER_0_81_273
*10493 FILLER_0_81_279
*10494 FILLER_0_81_281
*10495 FILLER_0_81_293
*10496 FILLER_0_81_3
*10497 FILLER_0_81_305
*10498 FILLER_0_81_317
*10499 FILLER_0_81_329
*10500 FILLER_0_81_335
*10501 FILLER_0_81_337
*10502 FILLER_0_81_349
*10503 FILLER_0_81_361
*10504 FILLER_0_81_373
*10505 FILLER_0_81_385
*10506 FILLER_0_81_39
*10507 FILLER_0_81_391
*10508 FILLER_0_81_393
*10509 FILLER_0_81_405
*10510 FILLER_0_81_417
*10511 FILLER_0_81_429
*10512 FILLER_0_81_441
*10513 FILLER_0_81_447
*10514 FILLER_0_81_449
*10515 FILLER_0_81_461
*10516 FILLER_0_81_473
*10517 FILLER_0_81_485
*10518 FILLER_0_81_497
*10519 FILLER_0_81_503
*10520 FILLER_0_81_505
*10521 FILLER_0_81_51
*10522 FILLER_0_81_517
*10523 FILLER_0_81_529
*10524 FILLER_0_81_541
*10525 FILLER_0_81_55
*10526 FILLER_0_81_553
*10527 FILLER_0_81_559
*10528 FILLER_0_81_561
*10529 FILLER_0_81_57
*10530 FILLER_0_81_573
*10531 FILLER_0_81_585
*10532 FILLER_0_81_597
*10533 FILLER_0_81_609
*10534 FILLER_0_81_615
*10535 FILLER_0_81_617
*10536 FILLER_0_81_629
*10537 FILLER_0_81_641
*10538 FILLER_0_81_653
*10539 FILLER_0_81_665
*10540 FILLER_0_81_671
*10541 FILLER_0_81_673
*10542 FILLER_0_81_685
*10543 FILLER_0_81_69
*10544 FILLER_0_81_697
*10545 FILLER_0_81_709
*10546 FILLER_0_81_721
*10547 FILLER_0_81_727
*10548 FILLER_0_81_729
*10549 FILLER_0_81_741
*10550 FILLER_0_81_753
*10551 FILLER_0_81_765
*10552 FILLER_0_81_777
*10553 FILLER_0_81_783
*10554 FILLER_0_81_785
*10555 FILLER_0_81_797
*10556 FILLER_0_81_809
*10557 FILLER_0_81_81
*10558 FILLER_0_81_821
*10559 FILLER_0_81_93
*10560 FILLER_0_82_109
*10561 FILLER_0_82_121
*10562 FILLER_0_82_133
*10563 FILLER_0_82_139
*10564 FILLER_0_82_141
*10565 FILLER_0_82_15
*10566 FILLER_0_82_153
*10567 FILLER_0_82_165
*10568 FILLER_0_82_177
*10569 FILLER_0_82_189
*10570 FILLER_0_82_195
*10571 FILLER_0_82_197
*10572 FILLER_0_82_209
*10573 FILLER_0_82_221
*10574 FILLER_0_82_233
*10575 FILLER_0_82_245
*10576 FILLER_0_82_251
*10577 FILLER_0_82_253
*10578 FILLER_0_82_265
*10579 FILLER_0_82_27
*10580 FILLER_0_82_277
*10581 FILLER_0_82_289
*10582 FILLER_0_82_29
*10583 FILLER_0_82_3
*10584 FILLER_0_82_301
*10585 FILLER_0_82_307
*10586 FILLER_0_82_309
*10587 FILLER_0_82_321
*10588 FILLER_0_82_333
*10589 FILLER_0_82_345
*10590 FILLER_0_82_357
*10591 FILLER_0_82_363
*10592 FILLER_0_82_365
*10593 FILLER_0_82_377
*10594 FILLER_0_82_389
*10595 FILLER_0_82_401
*10596 FILLER_0_82_41
*10597 FILLER_0_82_413
*10598 FILLER_0_82_419
*10599 FILLER_0_82_421
*10600 FILLER_0_82_433
*10601 FILLER_0_82_445
*10602 FILLER_0_82_457
*10603 FILLER_0_82_469
*10604 FILLER_0_82_475
*10605 FILLER_0_82_477
*10606 FILLER_0_82_489
*10607 FILLER_0_82_501
*10608 FILLER_0_82_513
*10609 FILLER_0_82_525
*10610 FILLER_0_82_53
*10611 FILLER_0_82_531
*10612 FILLER_0_82_533
*10613 FILLER_0_82_545
*10614 FILLER_0_82_557
*10615 FILLER_0_82_569
*10616 FILLER_0_82_581
*10617 FILLER_0_82_587
*10618 FILLER_0_82_589
*10619 FILLER_0_82_601
*10620 FILLER_0_82_613
*10621 FILLER_0_82_625
*10622 FILLER_0_82_637
*10623 FILLER_0_82_643
*10624 FILLER_0_82_645
*10625 FILLER_0_82_65
*10626 FILLER_0_82_657
*10627 FILLER_0_82_669
*10628 FILLER_0_82_681
*10629 FILLER_0_82_693
*10630 FILLER_0_82_699
*10631 FILLER_0_82_701
*10632 FILLER_0_82_713
*10633 FILLER_0_82_725
*10634 FILLER_0_82_737
*10635 FILLER_0_82_749
*10636 FILLER_0_82_755
*10637 FILLER_0_82_757
*10638 FILLER_0_82_769
*10639 FILLER_0_82_77
*10640 FILLER_0_82_781
*10641 FILLER_0_82_793
*10642 FILLER_0_82_805
*10643 FILLER_0_82_811
*10644 FILLER_0_82_813
*10645 FILLER_0_82_821
*10646 FILLER_0_82_83
*10647 FILLER_0_82_85
*10648 FILLER_0_82_97
*10649 FILLER_0_83_105
*10650 FILLER_0_83_111
*10651 FILLER_0_83_113
*10652 FILLER_0_83_125
*10653 FILLER_0_83_137
*10654 FILLER_0_83_149
*10655 FILLER_0_83_15
*10656 FILLER_0_83_161
*10657 FILLER_0_83_167
*10658 FILLER_0_83_169
*10659 FILLER_0_83_181
*10660 FILLER_0_83_193
*10661 FILLER_0_83_205
*10662 FILLER_0_83_217
*10663 FILLER_0_83_223
*10664 FILLER_0_83_225
*10665 FILLER_0_83_237
*10666 FILLER_0_83_249
*10667 FILLER_0_83_261
*10668 FILLER_0_83_27
*10669 FILLER_0_83_273
*10670 FILLER_0_83_279
*10671 FILLER_0_83_281
*10672 FILLER_0_83_293
*10673 FILLER_0_83_3
*10674 FILLER_0_83_305
*10675 FILLER_0_83_317
*10676 FILLER_0_83_329
*10677 FILLER_0_83_335
*10678 FILLER_0_83_337
*10679 FILLER_0_83_349
*10680 FILLER_0_83_361
*10681 FILLER_0_83_373
*10682 FILLER_0_83_385
*10683 FILLER_0_83_39
*10684 FILLER_0_83_391
*10685 FILLER_0_83_393
*10686 FILLER_0_83_405
*10687 FILLER_0_83_417
*10688 FILLER_0_83_429
*10689 FILLER_0_83_441
*10690 FILLER_0_83_447
*10691 FILLER_0_83_449
*10692 FILLER_0_83_461
*10693 FILLER_0_83_473
*10694 FILLER_0_83_485
*10695 FILLER_0_83_497
*10696 FILLER_0_83_503
*10697 FILLER_0_83_505
*10698 FILLER_0_83_51
*10699 FILLER_0_83_517
*10700 FILLER_0_83_529
*10701 FILLER_0_83_541
*10702 FILLER_0_83_55
*10703 FILLER_0_83_553
*10704 FILLER_0_83_559
*10705 FILLER_0_83_561
*10706 FILLER_0_83_57
*10707 FILLER_0_83_573
*10708 FILLER_0_83_585
*10709 FILLER_0_83_597
*10710 FILLER_0_83_609
*10711 FILLER_0_83_615
*10712 FILLER_0_83_617
*10713 FILLER_0_83_629
*10714 FILLER_0_83_641
*10715 FILLER_0_83_653
*10716 FILLER_0_83_665
*10717 FILLER_0_83_671
*10718 FILLER_0_83_673
*10719 FILLER_0_83_685
*10720 FILLER_0_83_69
*10721 FILLER_0_83_697
*10722 FILLER_0_83_709
*10723 FILLER_0_83_721
*10724 FILLER_0_83_727
*10725 FILLER_0_83_729
*10726 FILLER_0_83_741
*10727 FILLER_0_83_753
*10728 FILLER_0_83_765
*10729 FILLER_0_83_777
*10730 FILLER_0_83_783
*10731 FILLER_0_83_785
*10732 FILLER_0_83_797
*10733 FILLER_0_83_809
*10734 FILLER_0_83_81
*10735 FILLER_0_83_821
*10736 FILLER_0_83_93
*10737 FILLER_0_84_109
*10738 FILLER_0_84_121
*10739 FILLER_0_84_133
*10740 FILLER_0_84_139
*10741 FILLER_0_84_141
*10742 FILLER_0_84_15
*10743 FILLER_0_84_153
*10744 FILLER_0_84_165
*10745 FILLER_0_84_177
*10746 FILLER_0_84_189
*10747 FILLER_0_84_195
*10748 FILLER_0_84_197
*10749 FILLER_0_84_209
*10750 FILLER_0_84_221
*10751 FILLER_0_84_233
*10752 FILLER_0_84_245
*10753 FILLER_0_84_251
*10754 FILLER_0_84_253
*10755 FILLER_0_84_265
*10756 FILLER_0_84_27
*10757 FILLER_0_84_277
*10758 FILLER_0_84_289
*10759 FILLER_0_84_29
*10760 FILLER_0_84_3
*10761 FILLER_0_84_301
*10762 FILLER_0_84_307
*10763 FILLER_0_84_309
*10764 FILLER_0_84_321
*10765 FILLER_0_84_333
*10766 FILLER_0_84_345
*10767 FILLER_0_84_357
*10768 FILLER_0_84_363
*10769 FILLER_0_84_365
*10770 FILLER_0_84_377
*10771 FILLER_0_84_389
*10772 FILLER_0_84_401
*10773 FILLER_0_84_41
*10774 FILLER_0_84_413
*10775 FILLER_0_84_419
*10776 FILLER_0_84_421
*10777 FILLER_0_84_433
*10778 FILLER_0_84_445
*10779 FILLER_0_84_457
*10780 FILLER_0_84_469
*10781 FILLER_0_84_475
*10782 FILLER_0_84_477
*10783 FILLER_0_84_489
*10784 FILLER_0_84_501
*10785 FILLER_0_84_513
*10786 FILLER_0_84_525
*10787 FILLER_0_84_53
*10788 FILLER_0_84_531
*10789 FILLER_0_84_533
*10790 FILLER_0_84_545
*10791 FILLER_0_84_557
*10792 FILLER_0_84_569
*10793 FILLER_0_84_581
*10794 FILLER_0_84_587
*10795 FILLER_0_84_589
*10796 FILLER_0_84_601
*10797 FILLER_0_84_613
*10798 FILLER_0_84_625
*10799 FILLER_0_84_637
*10800 FILLER_0_84_643
*10801 FILLER_0_84_645
*10802 FILLER_0_84_65
*10803 FILLER_0_84_657
*10804 FILLER_0_84_669
*10805 FILLER_0_84_681
*10806 FILLER_0_84_693
*10807 FILLER_0_84_699
*10808 FILLER_0_84_701
*10809 FILLER_0_84_713
*10810 FILLER_0_84_725
*10811 FILLER_0_84_737
*10812 FILLER_0_84_749
*10813 FILLER_0_84_755
*10814 FILLER_0_84_757
*10815 FILLER_0_84_769
*10816 FILLER_0_84_77
*10817 FILLER_0_84_781
*10818 FILLER_0_84_793
*10819 FILLER_0_84_805
*10820 FILLER_0_84_811
*10821 FILLER_0_84_813
*10822 FILLER_0_84_821
*10823 FILLER_0_84_83
*10824 FILLER_0_84_85
*10825 FILLER_0_84_97
*10826 FILLER_0_85_105
*10827 FILLER_0_85_111
*10828 FILLER_0_85_113
*10829 FILLER_0_85_125
*10830 FILLER_0_85_137
*10831 FILLER_0_85_149
*10832 FILLER_0_85_15
*10833 FILLER_0_85_161
*10834 FILLER_0_85_167
*10835 FILLER_0_85_169
*10836 FILLER_0_85_181
*10837 FILLER_0_85_193
*10838 FILLER_0_85_205
*10839 FILLER_0_85_217
*10840 FILLER_0_85_223
*10841 FILLER_0_85_225
*10842 FILLER_0_85_237
*10843 FILLER_0_85_249
*10844 FILLER_0_85_261
*10845 FILLER_0_85_27
*10846 FILLER_0_85_273
*10847 FILLER_0_85_279
*10848 FILLER_0_85_281
*10849 FILLER_0_85_293
*10850 FILLER_0_85_3
*10851 FILLER_0_85_305
*10852 FILLER_0_85_317
*10853 FILLER_0_85_329
*10854 FILLER_0_85_335
*10855 FILLER_0_85_337
*10856 FILLER_0_85_349
*10857 FILLER_0_85_361
*10858 FILLER_0_85_373
*10859 FILLER_0_85_385
*10860 FILLER_0_85_39
*10861 FILLER_0_85_391
*10862 FILLER_0_85_393
*10863 FILLER_0_85_405
*10864 FILLER_0_85_417
*10865 FILLER_0_85_429
*10866 FILLER_0_85_441
*10867 FILLER_0_85_447
*10868 FILLER_0_85_449
*10869 FILLER_0_85_461
*10870 FILLER_0_85_473
*10871 FILLER_0_85_485
*10872 FILLER_0_85_497
*10873 FILLER_0_85_503
*10874 FILLER_0_85_505
*10875 FILLER_0_85_51
*10876 FILLER_0_85_517
*10877 FILLER_0_85_529
*10878 FILLER_0_85_541
*10879 FILLER_0_85_55
*10880 FILLER_0_85_553
*10881 FILLER_0_85_559
*10882 FILLER_0_85_561
*10883 FILLER_0_85_57
*10884 FILLER_0_85_573
*10885 FILLER_0_85_585
*10886 FILLER_0_85_597
*10887 FILLER_0_85_609
*10888 FILLER_0_85_615
*10889 FILLER_0_85_617
*10890 FILLER_0_85_629
*10891 FILLER_0_85_641
*10892 FILLER_0_85_653
*10893 FILLER_0_85_665
*10894 FILLER_0_85_671
*10895 FILLER_0_85_673
*10896 FILLER_0_85_685
*10897 FILLER_0_85_69
*10898 FILLER_0_85_697
*10899 FILLER_0_85_709
*10900 FILLER_0_85_721
*10901 FILLER_0_85_727
*10902 FILLER_0_85_729
*10903 FILLER_0_85_741
*10904 FILLER_0_85_753
*10905 FILLER_0_85_765
*10906 FILLER_0_85_777
*10907 FILLER_0_85_783
*10908 FILLER_0_85_785
*10909 FILLER_0_85_797
*10910 FILLER_0_85_809
*10911 FILLER_0_85_81
*10912 FILLER_0_85_821
*10913 FILLER_0_85_93
*10914 FILLER_0_86_109
*10915 FILLER_0_86_121
*10916 FILLER_0_86_133
*10917 FILLER_0_86_139
*10918 FILLER_0_86_141
*10919 FILLER_0_86_15
*10920 FILLER_0_86_153
*10921 FILLER_0_86_165
*10922 FILLER_0_86_177
*10923 FILLER_0_86_189
*10924 FILLER_0_86_195
*10925 FILLER_0_86_197
*10926 FILLER_0_86_209
*10927 FILLER_0_86_221
*10928 FILLER_0_86_233
*10929 FILLER_0_86_245
*10930 FILLER_0_86_251
*10931 FILLER_0_86_253
*10932 FILLER_0_86_265
*10933 FILLER_0_86_27
*10934 FILLER_0_86_277
*10935 FILLER_0_86_289
*10936 FILLER_0_86_29
*10937 FILLER_0_86_3
*10938 FILLER_0_86_301
*10939 FILLER_0_86_307
*10940 FILLER_0_86_309
*10941 FILLER_0_86_321
*10942 FILLER_0_86_333
*10943 FILLER_0_86_345
*10944 FILLER_0_86_357
*10945 FILLER_0_86_363
*10946 FILLER_0_86_365
*10947 FILLER_0_86_377
*10948 FILLER_0_86_389
*10949 FILLER_0_86_401
*10950 FILLER_0_86_41
*10951 FILLER_0_86_413
*10952 FILLER_0_86_419
*10953 FILLER_0_86_421
*10954 FILLER_0_86_433
*10955 FILLER_0_86_445
*10956 FILLER_0_86_457
*10957 FILLER_0_86_469
*10958 FILLER_0_86_475
*10959 FILLER_0_86_477
*10960 FILLER_0_86_489
*10961 FILLER_0_86_501
*10962 FILLER_0_86_513
*10963 FILLER_0_86_525
*10964 FILLER_0_86_53
*10965 FILLER_0_86_531
*10966 FILLER_0_86_533
*10967 FILLER_0_86_545
*10968 FILLER_0_86_557
*10969 FILLER_0_86_569
*10970 FILLER_0_86_581
*10971 FILLER_0_86_587
*10972 FILLER_0_86_589
*10973 FILLER_0_86_601
*10974 FILLER_0_86_613
*10975 FILLER_0_86_625
*10976 FILLER_0_86_637
*10977 FILLER_0_86_643
*10978 FILLER_0_86_645
*10979 FILLER_0_86_65
*10980 FILLER_0_86_657
*10981 FILLER_0_86_669
*10982 FILLER_0_86_681
*10983 FILLER_0_86_693
*10984 FILLER_0_86_699
*10985 FILLER_0_86_701
*10986 FILLER_0_86_713
*10987 FILLER_0_86_725
*10988 FILLER_0_86_737
*10989 FILLER_0_86_749
*10990 FILLER_0_86_755
*10991 FILLER_0_86_757
*10992 FILLER_0_86_769
*10993 FILLER_0_86_77
*10994 FILLER_0_86_781
*10995 FILLER_0_86_793
*10996 FILLER_0_86_805
*10997 FILLER_0_86_811
*10998 FILLER_0_86_813
*10999 FILLER_0_86_821
*11000 FILLER_0_86_83
*11001 FILLER_0_86_85
*11002 FILLER_0_86_97
*11003 FILLER_0_87_105
*11004 FILLER_0_87_111
*11005 FILLER_0_87_113
*11006 FILLER_0_87_125
*11007 FILLER_0_87_137
*11008 FILLER_0_87_149
*11009 FILLER_0_87_15
*11010 FILLER_0_87_161
*11011 FILLER_0_87_167
*11012 FILLER_0_87_169
*11013 FILLER_0_87_181
*11014 FILLER_0_87_193
*11015 FILLER_0_87_205
*11016 FILLER_0_87_217
*11017 FILLER_0_87_223
*11018 FILLER_0_87_225
*11019 FILLER_0_87_237
*11020 FILLER_0_87_249
*11021 FILLER_0_87_261
*11022 FILLER_0_87_27
*11023 FILLER_0_87_273
*11024 FILLER_0_87_279
*11025 FILLER_0_87_281
*11026 FILLER_0_87_293
*11027 FILLER_0_87_3
*11028 FILLER_0_87_305
*11029 FILLER_0_87_317
*11030 FILLER_0_87_329
*11031 FILLER_0_87_335
*11032 FILLER_0_87_337
*11033 FILLER_0_87_349
*11034 FILLER_0_87_361
*11035 FILLER_0_87_373
*11036 FILLER_0_87_385
*11037 FILLER_0_87_39
*11038 FILLER_0_87_391
*11039 FILLER_0_87_393
*11040 FILLER_0_87_405
*11041 FILLER_0_87_417
*11042 FILLER_0_87_429
*11043 FILLER_0_87_441
*11044 FILLER_0_87_447
*11045 FILLER_0_87_449
*11046 FILLER_0_87_461
*11047 FILLER_0_87_473
*11048 FILLER_0_87_485
*11049 FILLER_0_87_497
*11050 FILLER_0_87_503
*11051 FILLER_0_87_505
*11052 FILLER_0_87_51
*11053 FILLER_0_87_517
*11054 FILLER_0_87_529
*11055 FILLER_0_87_541
*11056 FILLER_0_87_55
*11057 FILLER_0_87_553
*11058 FILLER_0_87_559
*11059 FILLER_0_87_561
*11060 FILLER_0_87_57
*11061 FILLER_0_87_573
*11062 FILLER_0_87_585
*11063 FILLER_0_87_597
*11064 FILLER_0_87_609
*11065 FILLER_0_87_615
*11066 FILLER_0_87_617
*11067 FILLER_0_87_629
*11068 FILLER_0_87_641
*11069 FILLER_0_87_653
*11070 FILLER_0_87_665
*11071 FILLER_0_87_671
*11072 FILLER_0_87_673
*11073 FILLER_0_87_685
*11074 FILLER_0_87_69
*11075 FILLER_0_87_697
*11076 FILLER_0_87_709
*11077 FILLER_0_87_721
*11078 FILLER_0_87_727
*11079 FILLER_0_87_729
*11080 FILLER_0_87_741
*11081 FILLER_0_87_753
*11082 FILLER_0_87_765
*11083 FILLER_0_87_777
*11084 FILLER_0_87_783
*11085 FILLER_0_87_785
*11086 FILLER_0_87_797
*11087 FILLER_0_87_809
*11088 FILLER_0_87_81
*11089 FILLER_0_87_821
*11090 FILLER_0_87_93
*11091 FILLER_0_88_109
*11092 FILLER_0_88_121
*11093 FILLER_0_88_133
*11094 FILLER_0_88_139
*11095 FILLER_0_88_141
*11096 FILLER_0_88_15
*11097 FILLER_0_88_153
*11098 FILLER_0_88_165
*11099 FILLER_0_88_177
*11100 FILLER_0_88_189
*11101 FILLER_0_88_195
*11102 FILLER_0_88_197
*11103 FILLER_0_88_209
*11104 FILLER_0_88_221
*11105 FILLER_0_88_233
*11106 FILLER_0_88_245
*11107 FILLER_0_88_251
*11108 FILLER_0_88_253
*11109 FILLER_0_88_265
*11110 FILLER_0_88_27
*11111 FILLER_0_88_277
*11112 FILLER_0_88_289
*11113 FILLER_0_88_29
*11114 FILLER_0_88_3
*11115 FILLER_0_88_301
*11116 FILLER_0_88_307
*11117 FILLER_0_88_309
*11118 FILLER_0_88_321
*11119 FILLER_0_88_333
*11120 FILLER_0_88_345
*11121 FILLER_0_88_357
*11122 FILLER_0_88_363
*11123 FILLER_0_88_365
*11124 FILLER_0_88_377
*11125 FILLER_0_88_389
*11126 FILLER_0_88_401
*11127 FILLER_0_88_41
*11128 FILLER_0_88_413
*11129 FILLER_0_88_419
*11130 FILLER_0_88_421
*11131 FILLER_0_88_433
*11132 FILLER_0_88_445
*11133 FILLER_0_88_457
*11134 FILLER_0_88_469
*11135 FILLER_0_88_475
*11136 FILLER_0_88_477
*11137 FILLER_0_88_489
*11138 FILLER_0_88_501
*11139 FILLER_0_88_513
*11140 FILLER_0_88_525
*11141 FILLER_0_88_53
*11142 FILLER_0_88_531
*11143 FILLER_0_88_533
*11144 FILLER_0_88_545
*11145 FILLER_0_88_557
*11146 FILLER_0_88_569
*11147 FILLER_0_88_581
*11148 FILLER_0_88_587
*11149 FILLER_0_88_589
*11150 FILLER_0_88_601
*11151 FILLER_0_88_613
*11152 FILLER_0_88_625
*11153 FILLER_0_88_637
*11154 FILLER_0_88_643
*11155 FILLER_0_88_645
*11156 FILLER_0_88_65
*11157 FILLER_0_88_657
*11158 FILLER_0_88_669
*11159 FILLER_0_88_681
*11160 FILLER_0_88_693
*11161 FILLER_0_88_699
*11162 FILLER_0_88_701
*11163 FILLER_0_88_713
*11164 FILLER_0_88_725
*11165 FILLER_0_88_737
*11166 FILLER_0_88_749
*11167 FILLER_0_88_755
*11168 FILLER_0_88_757
*11169 FILLER_0_88_769
*11170 FILLER_0_88_77
*11171 FILLER_0_88_781
*11172 FILLER_0_88_793
*11173 FILLER_0_88_805
*11174 FILLER_0_88_811
*11175 FILLER_0_88_813
*11176 FILLER_0_88_821
*11177 FILLER_0_88_83
*11178 FILLER_0_88_85
*11179 FILLER_0_88_97
*11180 FILLER_0_89_105
*11181 FILLER_0_89_111
*11182 FILLER_0_89_113
*11183 FILLER_0_89_125
*11184 FILLER_0_89_137
*11185 FILLER_0_89_149
*11186 FILLER_0_89_15
*11187 FILLER_0_89_161
*11188 FILLER_0_89_167
*11189 FILLER_0_89_169
*11190 FILLER_0_89_181
*11191 FILLER_0_89_193
*11192 FILLER_0_89_205
*11193 FILLER_0_89_217
*11194 FILLER_0_89_223
*11195 FILLER_0_89_225
*11196 FILLER_0_89_237
*11197 FILLER_0_89_249
*11198 FILLER_0_89_261
*11199 FILLER_0_89_27
*11200 FILLER_0_89_273
*11201 FILLER_0_89_279
*11202 FILLER_0_89_281
*11203 FILLER_0_89_293
*11204 FILLER_0_89_3
*11205 FILLER_0_89_305
*11206 FILLER_0_89_317
*11207 FILLER_0_89_329
*11208 FILLER_0_89_335
*11209 FILLER_0_89_337
*11210 FILLER_0_89_349
*11211 FILLER_0_89_361
*11212 FILLER_0_89_373
*11213 FILLER_0_89_385
*11214 FILLER_0_89_39
*11215 FILLER_0_89_391
*11216 FILLER_0_89_393
*11217 FILLER_0_89_405
*11218 FILLER_0_89_417
*11219 FILLER_0_89_429
*11220 FILLER_0_89_441
*11221 FILLER_0_89_447
*11222 FILLER_0_89_449
*11223 FILLER_0_89_461
*11224 FILLER_0_89_473
*11225 FILLER_0_89_485
*11226 FILLER_0_89_497
*11227 FILLER_0_89_503
*11228 FILLER_0_89_505
*11229 FILLER_0_89_51
*11230 FILLER_0_89_517
*11231 FILLER_0_89_529
*11232 FILLER_0_89_541
*11233 FILLER_0_89_55
*11234 FILLER_0_89_553
*11235 FILLER_0_89_559
*11236 FILLER_0_89_561
*11237 FILLER_0_89_57
*11238 FILLER_0_89_573
*11239 FILLER_0_89_585
*11240 FILLER_0_89_597
*11241 FILLER_0_89_609
*11242 FILLER_0_89_615
*11243 FILLER_0_89_617
*11244 FILLER_0_89_629
*11245 FILLER_0_89_641
*11246 FILLER_0_89_653
*11247 FILLER_0_89_665
*11248 FILLER_0_89_671
*11249 FILLER_0_89_673
*11250 FILLER_0_89_685
*11251 FILLER_0_89_69
*11252 FILLER_0_89_697
*11253 FILLER_0_89_709
*11254 FILLER_0_89_721
*11255 FILLER_0_89_727
*11256 FILLER_0_89_729
*11257 FILLER_0_89_741
*11258 FILLER_0_89_753
*11259 FILLER_0_89_765
*11260 FILLER_0_89_777
*11261 FILLER_0_89_783
*11262 FILLER_0_89_785
*11263 FILLER_0_89_797
*11264 FILLER_0_89_809
*11265 FILLER_0_89_81
*11266 FILLER_0_89_821
*11267 FILLER_0_89_93
*11268 FILLER_0_8_109
*11269 FILLER_0_8_121
*11270 FILLER_0_8_133
*11271 FILLER_0_8_139
*11272 FILLER_0_8_141
*11273 FILLER_0_8_15
*11274 FILLER_0_8_153
*11275 FILLER_0_8_165
*11276 FILLER_0_8_177
*11277 FILLER_0_8_189
*11278 FILLER_0_8_195
*11279 FILLER_0_8_197
*11280 FILLER_0_8_209
*11281 FILLER_0_8_221
*11282 FILLER_0_8_233
*11283 FILLER_0_8_245
*11284 FILLER_0_8_251
*11285 FILLER_0_8_253
*11286 FILLER_0_8_265
*11287 FILLER_0_8_27
*11288 FILLER_0_8_277
*11289 FILLER_0_8_289
*11290 FILLER_0_8_29
*11291 FILLER_0_8_3
*11292 FILLER_0_8_301
*11293 FILLER_0_8_307
*11294 FILLER_0_8_309
*11295 FILLER_0_8_321
*11296 FILLER_0_8_333
*11297 FILLER_0_8_345
*11298 FILLER_0_8_357
*11299 FILLER_0_8_363
*11300 FILLER_0_8_365
*11301 FILLER_0_8_377
*11302 FILLER_0_8_389
*11303 FILLER_0_8_401
*11304 FILLER_0_8_41
*11305 FILLER_0_8_413
*11306 FILLER_0_8_419
*11307 FILLER_0_8_421
*11308 FILLER_0_8_433
*11309 FILLER_0_8_445
*11310 FILLER_0_8_457
*11311 FILLER_0_8_469
*11312 FILLER_0_8_475
*11313 FILLER_0_8_477
*11314 FILLER_0_8_489
*11315 FILLER_0_8_501
*11316 FILLER_0_8_513
*11317 FILLER_0_8_525
*11318 FILLER_0_8_53
*11319 FILLER_0_8_531
*11320 FILLER_0_8_533
*11321 FILLER_0_8_545
*11322 FILLER_0_8_557
*11323 FILLER_0_8_569
*11324 FILLER_0_8_581
*11325 FILLER_0_8_587
*11326 FILLER_0_8_589
*11327 FILLER_0_8_601
*11328 FILLER_0_8_613
*11329 FILLER_0_8_625
*11330 FILLER_0_8_637
*11331 FILLER_0_8_643
*11332 FILLER_0_8_645
*11333 FILLER_0_8_65
*11334 FILLER_0_8_657
*11335 FILLER_0_8_669
*11336 FILLER_0_8_681
*11337 FILLER_0_8_693
*11338 FILLER_0_8_699
*11339 FILLER_0_8_701
*11340 FILLER_0_8_713
*11341 FILLER_0_8_725
*11342 FILLER_0_8_737
*11343 FILLER_0_8_749
*11344 FILLER_0_8_755
*11345 FILLER_0_8_757
*11346 FILLER_0_8_769
*11347 FILLER_0_8_77
*11348 FILLER_0_8_781
*11349 FILLER_0_8_793
*11350 FILLER_0_8_805
*11351 FILLER_0_8_811
*11352 FILLER_0_8_813
*11353 FILLER_0_8_821
*11354 FILLER_0_8_83
*11355 FILLER_0_8_85
*11356 FILLER_0_8_97
*11357 FILLER_0_90_109
*11358 FILLER_0_90_121
*11359 FILLER_0_90_133
*11360 FILLER_0_90_139
*11361 FILLER_0_90_141
*11362 FILLER_0_90_15
*11363 FILLER_0_90_153
*11364 FILLER_0_90_165
*11365 FILLER_0_90_177
*11366 FILLER_0_90_189
*11367 FILLER_0_90_195
*11368 FILLER_0_90_197
*11369 FILLER_0_90_209
*11370 FILLER_0_90_221
*11371 FILLER_0_90_233
*11372 FILLER_0_90_245
*11373 FILLER_0_90_251
*11374 FILLER_0_90_253
*11375 FILLER_0_90_265
*11376 FILLER_0_90_27
*11377 FILLER_0_90_277
*11378 FILLER_0_90_289
*11379 FILLER_0_90_29
*11380 FILLER_0_90_3
*11381 FILLER_0_90_301
*11382 FILLER_0_90_307
*11383 FILLER_0_90_309
*11384 FILLER_0_90_321
*11385 FILLER_0_90_333
*11386 FILLER_0_90_345
*11387 FILLER_0_90_357
*11388 FILLER_0_90_363
*11389 FILLER_0_90_365
*11390 FILLER_0_90_377
*11391 FILLER_0_90_389
*11392 FILLER_0_90_401
*11393 FILLER_0_90_41
*11394 FILLER_0_90_413
*11395 FILLER_0_90_419
*11396 FILLER_0_90_421
*11397 FILLER_0_90_433
*11398 FILLER_0_90_445
*11399 FILLER_0_90_457
*11400 FILLER_0_90_469
*11401 FILLER_0_90_475
*11402 FILLER_0_90_477
*11403 FILLER_0_90_489
*11404 FILLER_0_90_501
*11405 FILLER_0_90_513
*11406 FILLER_0_90_525
*11407 FILLER_0_90_53
*11408 FILLER_0_90_531
*11409 FILLER_0_90_533
*11410 FILLER_0_90_545
*11411 FILLER_0_90_557
*11412 FILLER_0_90_569
*11413 FILLER_0_90_581
*11414 FILLER_0_90_587
*11415 FILLER_0_90_589
*11416 FILLER_0_90_601
*11417 FILLER_0_90_613
*11418 FILLER_0_90_625
*11419 FILLER_0_90_637
*11420 FILLER_0_90_643
*11421 FILLER_0_90_645
*11422 FILLER_0_90_65
*11423 FILLER_0_90_657
*11424 FILLER_0_90_669
*11425 FILLER_0_90_681
*11426 FILLER_0_90_693
*11427 FILLER_0_90_699
*11428 FILLER_0_90_701
*11429 FILLER_0_90_713
*11430 FILLER_0_90_725
*11431 FILLER_0_90_737
*11432 FILLER_0_90_749
*11433 FILLER_0_90_755
*11434 FILLER_0_90_757
*11435 FILLER_0_90_769
*11436 FILLER_0_90_77
*11437 FILLER_0_90_781
*11438 FILLER_0_90_793
*11439 FILLER_0_90_805
*11440 FILLER_0_90_811
*11441 FILLER_0_90_813
*11442 FILLER_0_90_821
*11443 FILLER_0_90_83
*11444 FILLER_0_90_85
*11445 FILLER_0_90_97
*11446 FILLER_0_91_105
*11447 FILLER_0_91_111
*11448 FILLER_0_91_113
*11449 FILLER_0_91_125
*11450 FILLER_0_91_137
*11451 FILLER_0_91_149
*11452 FILLER_0_91_15
*11453 FILLER_0_91_161
*11454 FILLER_0_91_167
*11455 FILLER_0_91_169
*11456 FILLER_0_91_181
*11457 FILLER_0_91_193
*11458 FILLER_0_91_205
*11459 FILLER_0_91_217
*11460 FILLER_0_91_223
*11461 FILLER_0_91_225
*11462 FILLER_0_91_237
*11463 FILLER_0_91_249
*11464 FILLER_0_91_261
*11465 FILLER_0_91_27
*11466 FILLER_0_91_273
*11467 FILLER_0_91_279
*11468 FILLER_0_91_281
*11469 FILLER_0_91_293
*11470 FILLER_0_91_3
*11471 FILLER_0_91_305
*11472 FILLER_0_91_317
*11473 FILLER_0_91_329
*11474 FILLER_0_91_335
*11475 FILLER_0_91_337
*11476 FILLER_0_91_349
*11477 FILLER_0_91_361
*11478 FILLER_0_91_373
*11479 FILLER_0_91_385
*11480 FILLER_0_91_39
*11481 FILLER_0_91_391
*11482 FILLER_0_91_393
*11483 FILLER_0_91_405
*11484 FILLER_0_91_417
*11485 FILLER_0_91_429
*11486 FILLER_0_91_441
*11487 FILLER_0_91_447
*11488 FILLER_0_91_449
*11489 FILLER_0_91_461
*11490 FILLER_0_91_473
*11491 FILLER_0_91_485
*11492 FILLER_0_91_497
*11493 FILLER_0_91_503
*11494 FILLER_0_91_505
*11495 FILLER_0_91_51
*11496 FILLER_0_91_517
*11497 FILLER_0_91_529
*11498 FILLER_0_91_541
*11499 FILLER_0_91_55
*11500 FILLER_0_91_553
*11501 FILLER_0_91_559
*11502 FILLER_0_91_561
*11503 FILLER_0_91_57
*11504 FILLER_0_91_573
*11505 FILLER_0_91_585
*11506 FILLER_0_91_597
*11507 FILLER_0_91_609
*11508 FILLER_0_91_615
*11509 FILLER_0_91_617
*11510 FILLER_0_91_629
*11511 FILLER_0_91_641
*11512 FILLER_0_91_653
*11513 FILLER_0_91_665
*11514 FILLER_0_91_671
*11515 FILLER_0_91_673
*11516 FILLER_0_91_685
*11517 FILLER_0_91_69
*11518 FILLER_0_91_697
*11519 FILLER_0_91_709
*11520 FILLER_0_91_721
*11521 FILLER_0_91_727
*11522 FILLER_0_91_729
*11523 FILLER_0_91_741
*11524 FILLER_0_91_753
*11525 FILLER_0_91_765
*11526 FILLER_0_91_777
*11527 FILLER_0_91_783
*11528 FILLER_0_91_785
*11529 FILLER_0_91_797
*11530 FILLER_0_91_809
*11531 FILLER_0_91_81
*11532 FILLER_0_91_817
*11533 FILLER_0_91_93
*11534 FILLER_0_92_109
*11535 FILLER_0_92_121
*11536 FILLER_0_92_133
*11537 FILLER_0_92_139
*11538 FILLER_0_92_141
*11539 FILLER_0_92_15
*11540 FILLER_0_92_153
*11541 FILLER_0_92_165
*11542 FILLER_0_92_177
*11543 FILLER_0_92_189
*11544 FILLER_0_92_195
*11545 FILLER_0_92_197
*11546 FILLER_0_92_209
*11547 FILLER_0_92_221
*11548 FILLER_0_92_233
*11549 FILLER_0_92_245
*11550 FILLER_0_92_251
*11551 FILLER_0_92_253
*11552 FILLER_0_92_265
*11553 FILLER_0_92_27
*11554 FILLER_0_92_277
*11555 FILLER_0_92_289
*11556 FILLER_0_92_29
*11557 FILLER_0_92_3
*11558 FILLER_0_92_301
*11559 FILLER_0_92_307
*11560 FILLER_0_92_309
*11561 FILLER_0_92_321
*11562 FILLER_0_92_333
*11563 FILLER_0_92_345
*11564 FILLER_0_92_357
*11565 FILLER_0_92_363
*11566 FILLER_0_92_365
*11567 FILLER_0_92_377
*11568 FILLER_0_92_389
*11569 FILLER_0_92_401
*11570 FILLER_0_92_41
*11571 FILLER_0_92_413
*11572 FILLER_0_92_419
*11573 FILLER_0_92_421
*11574 FILLER_0_92_433
*11575 FILLER_0_92_445
*11576 FILLER_0_92_457
*11577 FILLER_0_92_469
*11578 FILLER_0_92_475
*11579 FILLER_0_92_477
*11580 FILLER_0_92_489
*11581 FILLER_0_92_501
*11582 FILLER_0_92_513
*11583 FILLER_0_92_525
*11584 FILLER_0_92_53
*11585 FILLER_0_92_531
*11586 FILLER_0_92_533
*11587 FILLER_0_92_545
*11588 FILLER_0_92_557
*11589 FILLER_0_92_569
*11590 FILLER_0_92_581
*11591 FILLER_0_92_587
*11592 FILLER_0_92_589
*11593 FILLER_0_92_601
*11594 FILLER_0_92_613
*11595 FILLER_0_92_625
*11596 FILLER_0_92_637
*11597 FILLER_0_92_643
*11598 FILLER_0_92_645
*11599 FILLER_0_92_65
*11600 FILLER_0_92_657
*11601 FILLER_0_92_669
*11602 FILLER_0_92_681
*11603 FILLER_0_92_693
*11604 FILLER_0_92_699
*11605 FILLER_0_92_701
*11606 FILLER_0_92_713
*11607 FILLER_0_92_725
*11608 FILLER_0_92_737
*11609 FILLER_0_92_749
*11610 FILLER_0_92_755
*11611 FILLER_0_92_757
*11612 FILLER_0_92_769
*11613 FILLER_0_92_77
*11614 FILLER_0_92_781
*11615 FILLER_0_92_793
*11616 FILLER_0_92_805
*11617 FILLER_0_92_811
*11618 FILLER_0_92_813
*11619 FILLER_0_92_821
*11620 FILLER_0_92_83
*11621 FILLER_0_92_85
*11622 FILLER_0_92_97
*11623 FILLER_0_93_105
*11624 FILLER_0_93_111
*11625 FILLER_0_93_113
*11626 FILLER_0_93_125
*11627 FILLER_0_93_137
*11628 FILLER_0_93_149
*11629 FILLER_0_93_15
*11630 FILLER_0_93_161
*11631 FILLER_0_93_167
*11632 FILLER_0_93_169
*11633 FILLER_0_93_181
*11634 FILLER_0_93_193
*11635 FILLER_0_93_205
*11636 FILLER_0_93_217
*11637 FILLER_0_93_223
*11638 FILLER_0_93_225
*11639 FILLER_0_93_237
*11640 FILLER_0_93_249
*11641 FILLER_0_93_261
*11642 FILLER_0_93_27
*11643 FILLER_0_93_273
*11644 FILLER_0_93_279
*11645 FILLER_0_93_281
*11646 FILLER_0_93_293
*11647 FILLER_0_93_3
*11648 FILLER_0_93_305
*11649 FILLER_0_93_317
*11650 FILLER_0_93_329
*11651 FILLER_0_93_335
*11652 FILLER_0_93_337
*11653 FILLER_0_93_349
*11654 FILLER_0_93_361
*11655 FILLER_0_93_373
*11656 FILLER_0_93_385
*11657 FILLER_0_93_39
*11658 FILLER_0_93_391
*11659 FILLER_0_93_393
*11660 FILLER_0_93_405
*11661 FILLER_0_93_417
*11662 FILLER_0_93_429
*11663 FILLER_0_93_441
*11664 FILLER_0_93_447
*11665 FILLER_0_93_449
*11666 FILLER_0_93_461
*11667 FILLER_0_93_473
*11668 FILLER_0_93_485
*11669 FILLER_0_93_497
*11670 FILLER_0_93_503
*11671 FILLER_0_93_505
*11672 FILLER_0_93_51
*11673 FILLER_0_93_517
*11674 FILLER_0_93_529
*11675 FILLER_0_93_541
*11676 FILLER_0_93_55
*11677 FILLER_0_93_553
*11678 FILLER_0_93_559
*11679 FILLER_0_93_561
*11680 FILLER_0_93_57
*11681 FILLER_0_93_573
*11682 FILLER_0_93_585
*11683 FILLER_0_93_597
*11684 FILLER_0_93_609
*11685 FILLER_0_93_615
*11686 FILLER_0_93_617
*11687 FILLER_0_93_629
*11688 FILLER_0_93_641
*11689 FILLER_0_93_653
*11690 FILLER_0_93_665
*11691 FILLER_0_93_671
*11692 FILLER_0_93_673
*11693 FILLER_0_93_685
*11694 FILLER_0_93_69
*11695 FILLER_0_93_697
*11696 FILLER_0_93_709
*11697 FILLER_0_93_721
*11698 FILLER_0_93_727
*11699 FILLER_0_93_729
*11700 FILLER_0_93_741
*11701 FILLER_0_93_753
*11702 FILLER_0_93_765
*11703 FILLER_0_93_777
*11704 FILLER_0_93_783
*11705 FILLER_0_93_785
*11706 FILLER_0_93_797
*11707 FILLER_0_93_809
*11708 FILLER_0_93_81
*11709 FILLER_0_93_821
*11710 FILLER_0_93_93
*11711 FILLER_0_94_109
*11712 FILLER_0_94_121
*11713 FILLER_0_94_133
*11714 FILLER_0_94_139
*11715 FILLER_0_94_141
*11716 FILLER_0_94_15
*11717 FILLER_0_94_153
*11718 FILLER_0_94_165
*11719 FILLER_0_94_177
*11720 FILLER_0_94_189
*11721 FILLER_0_94_195
*11722 FILLER_0_94_197
*11723 FILLER_0_94_209
*11724 FILLER_0_94_221
*11725 FILLER_0_94_233
*11726 FILLER_0_94_245
*11727 FILLER_0_94_251
*11728 FILLER_0_94_253
*11729 FILLER_0_94_265
*11730 FILLER_0_94_27
*11731 FILLER_0_94_277
*11732 FILLER_0_94_289
*11733 FILLER_0_94_29
*11734 FILLER_0_94_3
*11735 FILLER_0_94_301
*11736 FILLER_0_94_307
*11737 FILLER_0_94_309
*11738 FILLER_0_94_321
*11739 FILLER_0_94_333
*11740 FILLER_0_94_345
*11741 FILLER_0_94_357
*11742 FILLER_0_94_363
*11743 FILLER_0_94_365
*11744 FILLER_0_94_377
*11745 FILLER_0_94_389
*11746 FILLER_0_94_401
*11747 FILLER_0_94_41
*11748 FILLER_0_94_413
*11749 FILLER_0_94_419
*11750 FILLER_0_94_421
*11751 FILLER_0_94_433
*11752 FILLER_0_94_445
*11753 FILLER_0_94_457
*11754 FILLER_0_94_469
*11755 FILLER_0_94_475
*11756 FILLER_0_94_477
*11757 FILLER_0_94_489
*11758 FILLER_0_94_501
*11759 FILLER_0_94_513
*11760 FILLER_0_94_525
*11761 FILLER_0_94_53
*11762 FILLER_0_94_531
*11763 FILLER_0_94_533
*11764 FILLER_0_94_545
*11765 FILLER_0_94_557
*11766 FILLER_0_94_569
*11767 FILLER_0_94_581
*11768 FILLER_0_94_587
*11769 FILLER_0_94_589
*11770 FILLER_0_94_601
*11771 FILLER_0_94_613
*11772 FILLER_0_94_625
*11773 FILLER_0_94_637
*11774 FILLER_0_94_643
*11775 FILLER_0_94_645
*11776 FILLER_0_94_65
*11777 FILLER_0_94_657
*11778 FILLER_0_94_669
*11779 FILLER_0_94_681
*11780 FILLER_0_94_693
*11781 FILLER_0_94_699
*11782 FILLER_0_94_701
*11783 FILLER_0_94_713
*11784 FILLER_0_94_725
*11785 FILLER_0_94_737
*11786 FILLER_0_94_749
*11787 FILLER_0_94_755
*11788 FILLER_0_94_757
*11789 FILLER_0_94_769
*11790 FILLER_0_94_77
*11791 FILLER_0_94_781
*11792 FILLER_0_94_793
*11793 FILLER_0_94_805
*11794 FILLER_0_94_811
*11795 FILLER_0_94_813
*11796 FILLER_0_94_821
*11797 FILLER_0_94_83
*11798 FILLER_0_94_85
*11799 FILLER_0_94_97
*11800 FILLER_0_95_105
*11801 FILLER_0_95_111
*11802 FILLER_0_95_113
*11803 FILLER_0_95_125
*11804 FILLER_0_95_137
*11805 FILLER_0_95_149
*11806 FILLER_0_95_15
*11807 FILLER_0_95_161
*11808 FILLER_0_95_167
*11809 FILLER_0_95_169
*11810 FILLER_0_95_181
*11811 FILLER_0_95_193
*11812 FILLER_0_95_205
*11813 FILLER_0_95_217
*11814 FILLER_0_95_223
*11815 FILLER_0_95_225
*11816 FILLER_0_95_237
*11817 FILLER_0_95_249
*11818 FILLER_0_95_261
*11819 FILLER_0_95_27
*11820 FILLER_0_95_273
*11821 FILLER_0_95_279
*11822 FILLER_0_95_281
*11823 FILLER_0_95_293
*11824 FILLER_0_95_3
*11825 FILLER_0_95_305
*11826 FILLER_0_95_317
*11827 FILLER_0_95_329
*11828 FILLER_0_95_335
*11829 FILLER_0_95_337
*11830 FILLER_0_95_349
*11831 FILLER_0_95_361
*11832 FILLER_0_95_373
*11833 FILLER_0_95_385
*11834 FILLER_0_95_39
*11835 FILLER_0_95_391
*11836 FILLER_0_95_393
*11837 FILLER_0_95_405
*11838 FILLER_0_95_417
*11839 FILLER_0_95_429
*11840 FILLER_0_95_441
*11841 FILLER_0_95_447
*11842 FILLER_0_95_449
*11843 FILLER_0_95_461
*11844 FILLER_0_95_473
*11845 FILLER_0_95_485
*11846 FILLER_0_95_497
*11847 FILLER_0_95_503
*11848 FILLER_0_95_505
*11849 FILLER_0_95_51
*11850 FILLER_0_95_517
*11851 FILLER_0_95_529
*11852 FILLER_0_95_541
*11853 FILLER_0_95_55
*11854 FILLER_0_95_553
*11855 FILLER_0_95_559
*11856 FILLER_0_95_561
*11857 FILLER_0_95_57
*11858 FILLER_0_95_573
*11859 FILLER_0_95_585
*11860 FILLER_0_95_597
*11861 FILLER_0_95_609
*11862 FILLER_0_95_615
*11863 FILLER_0_95_617
*11864 FILLER_0_95_629
*11865 FILLER_0_95_641
*11866 FILLER_0_95_653
*11867 FILLER_0_95_665
*11868 FILLER_0_95_671
*11869 FILLER_0_95_673
*11870 FILLER_0_95_685
*11871 FILLER_0_95_69
*11872 FILLER_0_95_697
*11873 FILLER_0_95_709
*11874 FILLER_0_95_721
*11875 FILLER_0_95_727
*11876 FILLER_0_95_729
*11877 FILLER_0_95_741
*11878 FILLER_0_95_753
*11879 FILLER_0_95_765
*11880 FILLER_0_95_777
*11881 FILLER_0_95_783
*11882 FILLER_0_95_785
*11883 FILLER_0_95_797
*11884 FILLER_0_95_809
*11885 FILLER_0_95_81
*11886 FILLER_0_95_821
*11887 FILLER_0_95_93
*11888 FILLER_0_96_109
*11889 FILLER_0_96_121
*11890 FILLER_0_96_133
*11891 FILLER_0_96_139
*11892 FILLER_0_96_141
*11893 FILLER_0_96_15
*11894 FILLER_0_96_153
*11895 FILLER_0_96_165
*11896 FILLER_0_96_177
*11897 FILLER_0_96_189
*11898 FILLER_0_96_195
*11899 FILLER_0_96_197
*11900 FILLER_0_96_209
*11901 FILLER_0_96_221
*11902 FILLER_0_96_233
*11903 FILLER_0_96_245
*11904 FILLER_0_96_251
*11905 FILLER_0_96_253
*11906 FILLER_0_96_265
*11907 FILLER_0_96_27
*11908 FILLER_0_96_277
*11909 FILLER_0_96_289
*11910 FILLER_0_96_29
*11911 FILLER_0_96_3
*11912 FILLER_0_96_301
*11913 FILLER_0_96_307
*11914 FILLER_0_96_309
*11915 FILLER_0_96_321
*11916 FILLER_0_96_333
*11917 FILLER_0_96_345
*11918 FILLER_0_96_357
*11919 FILLER_0_96_363
*11920 FILLER_0_96_365
*11921 FILLER_0_96_377
*11922 FILLER_0_96_389
*11923 FILLER_0_96_401
*11924 FILLER_0_96_41
*11925 FILLER_0_96_413
*11926 FILLER_0_96_419
*11927 FILLER_0_96_421
*11928 FILLER_0_96_433
*11929 FILLER_0_96_445
*11930 FILLER_0_96_457
*11931 FILLER_0_96_469
*11932 FILLER_0_96_475
*11933 FILLER_0_96_477
*11934 FILLER_0_96_489
*11935 FILLER_0_96_501
*11936 FILLER_0_96_513
*11937 FILLER_0_96_525
*11938 FILLER_0_96_53
*11939 FILLER_0_96_531
*11940 FILLER_0_96_533
*11941 FILLER_0_96_545
*11942 FILLER_0_96_557
*11943 FILLER_0_96_569
*11944 FILLER_0_96_581
*11945 FILLER_0_96_587
*11946 FILLER_0_96_589
*11947 FILLER_0_96_601
*11948 FILLER_0_96_613
*11949 FILLER_0_96_625
*11950 FILLER_0_96_637
*11951 FILLER_0_96_643
*11952 FILLER_0_96_645
*11953 FILLER_0_96_65
*11954 FILLER_0_96_657
*11955 FILLER_0_96_669
*11956 FILLER_0_96_681
*11957 FILLER_0_96_693
*11958 FILLER_0_96_699
*11959 FILLER_0_96_701
*11960 FILLER_0_96_713
*11961 FILLER_0_96_725
*11962 FILLER_0_96_737
*11963 FILLER_0_96_749
*11964 FILLER_0_96_755
*11965 FILLER_0_96_757
*11966 FILLER_0_96_769
*11967 FILLER_0_96_77
*11968 FILLER_0_96_781
*11969 FILLER_0_96_793
*11970 FILLER_0_96_805
*11971 FILLER_0_96_811
*11972 FILLER_0_96_813
*11973 FILLER_0_96_821
*11974 FILLER_0_96_83
*11975 FILLER_0_96_85
*11976 FILLER_0_96_97
*11977 FILLER_0_97_105
*11978 FILLER_0_97_111
*11979 FILLER_0_97_113
*11980 FILLER_0_97_125
*11981 FILLER_0_97_137
*11982 FILLER_0_97_149
*11983 FILLER_0_97_15
*11984 FILLER_0_97_161
*11985 FILLER_0_97_167
*11986 FILLER_0_97_169
*11987 FILLER_0_97_181
*11988 FILLER_0_97_193
*11989 FILLER_0_97_205
*11990 FILLER_0_97_217
*11991 FILLER_0_97_223
*11992 FILLER_0_97_225
*11993 FILLER_0_97_237
*11994 FILLER_0_97_249
*11995 FILLER_0_97_261
*11996 FILLER_0_97_27
*11997 FILLER_0_97_273
*11998 FILLER_0_97_279
*11999 FILLER_0_97_281
*12000 FILLER_0_97_293
*12001 FILLER_0_97_3
*12002 FILLER_0_97_305
*12003 FILLER_0_97_317
*12004 FILLER_0_97_329
*12005 FILLER_0_97_335
*12006 FILLER_0_97_337
*12007 FILLER_0_97_349
*12008 FILLER_0_97_361
*12009 FILLER_0_97_373
*12010 FILLER_0_97_385
*12011 FILLER_0_97_39
*12012 FILLER_0_97_391
*12013 FILLER_0_97_393
*12014 FILLER_0_97_405
*12015 FILLER_0_97_417
*12016 FILLER_0_97_429
*12017 FILLER_0_97_441
*12018 FILLER_0_97_447
*12019 FILLER_0_97_449
*12020 FILLER_0_97_461
*12021 FILLER_0_97_473
*12022 FILLER_0_97_485
*12023 FILLER_0_97_497
*12024 FILLER_0_97_503
*12025 FILLER_0_97_505
*12026 FILLER_0_97_51
*12027 FILLER_0_97_517
*12028 FILLER_0_97_529
*12029 FILLER_0_97_541
*12030 FILLER_0_97_55
*12031 FILLER_0_97_553
*12032 FILLER_0_97_559
*12033 FILLER_0_97_561
*12034 FILLER_0_97_57
*12035 FILLER_0_97_573
*12036 FILLER_0_97_585
*12037 FILLER_0_97_597
*12038 FILLER_0_97_609
*12039 FILLER_0_97_615
*12040 FILLER_0_97_617
*12041 FILLER_0_97_629
*12042 FILLER_0_97_641
*12043 FILLER_0_97_653
*12044 FILLER_0_97_665
*12045 FILLER_0_97_671
*12046 FILLER_0_97_673
*12047 FILLER_0_97_685
*12048 FILLER_0_97_69
*12049 FILLER_0_97_697
*12050 FILLER_0_97_709
*12051 FILLER_0_97_721
*12052 FILLER_0_97_727
*12053 FILLER_0_97_729
*12054 FILLER_0_97_741
*12055 FILLER_0_97_753
*12056 FILLER_0_97_765
*12057 FILLER_0_97_777
*12058 FILLER_0_97_783
*12059 FILLER_0_97_785
*12060 FILLER_0_97_797
*12061 FILLER_0_97_809
*12062 FILLER_0_97_81
*12063 FILLER_0_97_821
*12064 FILLER_0_97_93
*12065 FILLER_0_98_109
*12066 FILLER_0_98_121
*12067 FILLER_0_98_133
*12068 FILLER_0_98_139
*12069 FILLER_0_98_141
*12070 FILLER_0_98_15
*12071 FILLER_0_98_153
*12072 FILLER_0_98_165
*12073 FILLER_0_98_177
*12074 FILLER_0_98_189
*12075 FILLER_0_98_195
*12076 FILLER_0_98_197
*12077 FILLER_0_98_209
*12078 FILLER_0_98_221
*12079 FILLER_0_98_233
*12080 FILLER_0_98_245
*12081 FILLER_0_98_251
*12082 FILLER_0_98_253
*12083 FILLER_0_98_265
*12084 FILLER_0_98_27
*12085 FILLER_0_98_277
*12086 FILLER_0_98_289
*12087 FILLER_0_98_29
*12088 FILLER_0_98_3
*12089 FILLER_0_98_301
*12090 FILLER_0_98_307
*12091 FILLER_0_98_309
*12092 FILLER_0_98_321
*12093 FILLER_0_98_333
*12094 FILLER_0_98_345
*12095 FILLER_0_98_357
*12096 FILLER_0_98_363
*12097 FILLER_0_98_365
*12098 FILLER_0_98_377
*12099 FILLER_0_98_389
*12100 FILLER_0_98_401
*12101 FILLER_0_98_41
*12102 FILLER_0_98_413
*12103 FILLER_0_98_419
*12104 FILLER_0_98_421
*12105 FILLER_0_98_433
*12106 FILLER_0_98_445
*12107 FILLER_0_98_457
*12108 FILLER_0_98_469
*12109 FILLER_0_98_475
*12110 FILLER_0_98_477
*12111 FILLER_0_98_489
*12112 FILLER_0_98_501
*12113 FILLER_0_98_513
*12114 FILLER_0_98_525
*12115 FILLER_0_98_53
*12116 FILLER_0_98_531
*12117 FILLER_0_98_533
*12118 FILLER_0_98_545
*12119 FILLER_0_98_557
*12120 FILLER_0_98_569
*12121 FILLER_0_98_581
*12122 FILLER_0_98_587
*12123 FILLER_0_98_589
*12124 FILLER_0_98_601
*12125 FILLER_0_98_613
*12126 FILLER_0_98_625
*12127 FILLER_0_98_637
*12128 FILLER_0_98_643
*12129 FILLER_0_98_645
*12130 FILLER_0_98_65
*12131 FILLER_0_98_657
*12132 FILLER_0_98_669
*12133 FILLER_0_98_681
*12134 FILLER_0_98_693
*12135 FILLER_0_98_699
*12136 FILLER_0_98_701
*12137 FILLER_0_98_713
*12138 FILLER_0_98_725
*12139 FILLER_0_98_737
*12140 FILLER_0_98_749
*12141 FILLER_0_98_755
*12142 FILLER_0_98_757
*12143 FILLER_0_98_769
*12144 FILLER_0_98_77
*12145 FILLER_0_98_781
*12146 FILLER_0_98_793
*12147 FILLER_0_98_805
*12148 FILLER_0_98_811
*12149 FILLER_0_98_813
*12150 FILLER_0_98_821
*12151 FILLER_0_98_83
*12152 FILLER_0_98_85
*12153 FILLER_0_98_97
*12154 FILLER_0_99_105
*12155 FILLER_0_99_111
*12156 FILLER_0_99_113
*12157 FILLER_0_99_125
*12158 FILLER_0_99_137
*12159 FILLER_0_99_149
*12160 FILLER_0_99_15
*12161 FILLER_0_99_161
*12162 FILLER_0_99_167
*12163 FILLER_0_99_169
*12164 FILLER_0_99_181
*12165 FILLER_0_99_193
*12166 FILLER_0_99_205
*12167 FILLER_0_99_217
*12168 FILLER_0_99_223
*12169 FILLER_0_99_225
*12170 FILLER_0_99_237
*12171 FILLER_0_99_249
*12172 FILLER_0_99_261
*12173 FILLER_0_99_27
*12174 FILLER_0_99_273
*12175 FILLER_0_99_279
*12176 FILLER_0_99_281
*12177 FILLER_0_99_293
*12178 FILLER_0_99_3
*12179 FILLER_0_99_305
*12180 FILLER_0_99_317
*12181 FILLER_0_99_329
*12182 FILLER_0_99_335
*12183 FILLER_0_99_337
*12184 FILLER_0_99_349
*12185 FILLER_0_99_361
*12186 FILLER_0_99_373
*12187 FILLER_0_99_385
*12188 FILLER_0_99_39
*12189 FILLER_0_99_391
*12190 FILLER_0_99_393
*12191 FILLER_0_99_405
*12192 FILLER_0_99_417
*12193 FILLER_0_99_429
*12194 FILLER_0_99_441
*12195 FILLER_0_99_447
*12196 FILLER_0_99_449
*12197 FILLER_0_99_461
*12198 FILLER_0_99_473
*12199 FILLER_0_99_485
*12200 FILLER_0_99_497
*12201 FILLER_0_99_503
*12202 FILLER_0_99_505
*12203 FILLER_0_99_51
*12204 FILLER_0_99_517
*12205 FILLER_0_99_529
*12206 FILLER_0_99_541
*12207 FILLER_0_99_55
*12208 FILLER_0_99_553
*12209 FILLER_0_99_559
*12210 FILLER_0_99_561
*12211 FILLER_0_99_57
*12212 FILLER_0_99_573
*12213 FILLER_0_99_585
*12214 FILLER_0_99_597
*12215 FILLER_0_99_609
*12216 FILLER_0_99_615
*12217 FILLER_0_99_617
*12218 FILLER_0_99_629
*12219 FILLER_0_99_641
*12220 FILLER_0_99_653
*12221 FILLER_0_99_665
*12222 FILLER_0_99_671
*12223 FILLER_0_99_673
*12224 FILLER_0_99_685
*12225 FILLER_0_99_69
*12226 FILLER_0_99_697
*12227 FILLER_0_99_709
*12228 FILLER_0_99_721
*12229 FILLER_0_99_727
*12230 FILLER_0_99_729
*12231 FILLER_0_99_741
*12232 FILLER_0_99_753
*12233 FILLER_0_99_765
*12234 FILLER_0_99_777
*12235 FILLER_0_99_783
*12236 FILLER_0_99_785
*12237 FILLER_0_99_797
*12238 FILLER_0_99_809
*12239 FILLER_0_99_81
*12240 FILLER_0_99_821
*12241 FILLER_0_99_93
*12242 FILLER_0_9_105
*12243 FILLER_0_9_111
*12244 FILLER_0_9_113
*12245 FILLER_0_9_125
*12246 FILLER_0_9_137
*12247 FILLER_0_9_149
*12248 FILLER_0_9_15
*12249 FILLER_0_9_161
*12250 FILLER_0_9_167
*12251 FILLER_0_9_169
*12252 FILLER_0_9_181
*12253 FILLER_0_9_193
*12254 FILLER_0_9_205
*12255 FILLER_0_9_217
*12256 FILLER_0_9_223
*12257 FILLER_0_9_225
*12258 FILLER_0_9_237
*12259 FILLER_0_9_249
*12260 FILLER_0_9_261
*12261 FILLER_0_9_27
*12262 FILLER_0_9_273
*12263 FILLER_0_9_279
*12264 FILLER_0_9_281
*12265 FILLER_0_9_293
*12266 FILLER_0_9_3
*12267 FILLER_0_9_305
*12268 FILLER_0_9_317
*12269 FILLER_0_9_329
*12270 FILLER_0_9_335
*12271 FILLER_0_9_337
*12272 FILLER_0_9_349
*12273 FILLER_0_9_361
*12274 FILLER_0_9_373
*12275 FILLER_0_9_385
*12276 FILLER_0_9_39
*12277 FILLER_0_9_391
*12278 FILLER_0_9_393
*12279 FILLER_0_9_405
*12280 FILLER_0_9_417
*12281 FILLER_0_9_429
*12282 FILLER_0_9_441
*12283 FILLER_0_9_447
*12284 FILLER_0_9_449
*12285 FILLER_0_9_461
*12286 FILLER_0_9_473
*12287 FILLER_0_9_485
*12288 FILLER_0_9_497
*12289 FILLER_0_9_503
*12290 FILLER_0_9_505
*12291 FILLER_0_9_51
*12292 FILLER_0_9_517
*12293 FILLER_0_9_529
*12294 FILLER_0_9_541
*12295 FILLER_0_9_55
*12296 FILLER_0_9_553
*12297 FILLER_0_9_559
*12298 FILLER_0_9_561
*12299 FILLER_0_9_57
*12300 FILLER_0_9_573
*12301 FILLER_0_9_585
*12302 FILLER_0_9_597
*12303 FILLER_0_9_609
*12304 FILLER_0_9_615
*12305 FILLER_0_9_617
*12306 FILLER_0_9_629
*12307 FILLER_0_9_641
*12308 FILLER_0_9_653
*12309 FILLER_0_9_665
*12310 FILLER_0_9_671
*12311 FILLER_0_9_673
*12312 FILLER_0_9_685
*12313 FILLER_0_9_69
*12314 FILLER_0_9_697
*12315 FILLER_0_9_709
*12316 FILLER_0_9_721
*12317 FILLER_0_9_727
*12318 FILLER_0_9_729
*12319 FILLER_0_9_741
*12320 FILLER_0_9_753
*12321 FILLER_0_9_765
*12322 FILLER_0_9_777
*12323 FILLER_0_9_783
*12324 FILLER_0_9_785
*12325 FILLER_0_9_797
*12326 FILLER_0_9_809
*12327 FILLER_0_9_81
*12328 FILLER_0_9_821
*12329 FILLER_0_9_93
*12330 PHY_0
*12331 PHY_1
*12332 PHY_10
*12333 PHY_100
*12334 PHY_101
*12335 PHY_102
*12336 PHY_103
*12337 PHY_104
*12338 PHY_105
*12339 PHY_106
*12340 PHY_107
*12341 PHY_108
*12342 PHY_109
*12343 PHY_11
*12344 PHY_110
*12345 PHY_111
*12346 PHY_112
*12347 PHY_113
*12348 PHY_114
*12349 PHY_115
*12350 PHY_116
*12351 PHY_117
*12352 PHY_118
*12353 PHY_119
*12354 PHY_12
*12355 PHY_120
*12356 PHY_121
*12357 PHY_122
*12358 PHY_123
*12359 PHY_124
*12360 PHY_125
*12361 PHY_126
*12362 PHY_127
*12363 PHY_128
*12364 PHY_129
*12365 PHY_13
*12366 PHY_130
*12367 PHY_131
*12368 PHY_132
*12369 PHY_133
*12370 PHY_134
*12371 PHY_135
*12372 PHY_136
*12373 PHY_137
*12374 PHY_138
*12375 PHY_139
*12376 PHY_14
*12377 PHY_140
*12378 PHY_141
*12379 PHY_142
*12380 PHY_143
*12381 PHY_144
*12382 PHY_145
*12383 PHY_146
*12384 PHY_147
*12385 PHY_148
*12386 PHY_149
*12387 PHY_15
*12388 PHY_150
*12389 PHY_151
*12390 PHY_152
*12391 PHY_153
*12392 PHY_154
*12393 PHY_155
*12394 PHY_156
*12395 PHY_157
*12396 PHY_158
*12397 PHY_159
*12398 PHY_16
*12399 PHY_160
*12400 PHY_161
*12401 PHY_162
*12402 PHY_163
*12403 PHY_164
*12404 PHY_165
*12405 PHY_166
*12406 PHY_167
*12407 PHY_168
*12408 PHY_169
*12409 PHY_17
*12410 PHY_170
*12411 PHY_171
*12412 PHY_172
*12413 PHY_173
*12414 PHY_174
*12415 PHY_175
*12416 PHY_176
*12417 PHY_177
*12418 PHY_178
*12419 PHY_179
*12420 PHY_18
*12421 PHY_180
*12422 PHY_181
*12423 PHY_182
*12424 PHY_183
*12425 PHY_184
*12426 PHY_185
*12427 PHY_186
*12428 PHY_187
*12429 PHY_188
*12430 PHY_189
*12431 PHY_19
*12432 PHY_190
*12433 PHY_191
*12434 PHY_192
*12435 PHY_193
*12436 PHY_194
*12437 PHY_195
*12438 PHY_196
*12439 PHY_197
*12440 PHY_198
*12441 PHY_199
*12442 PHY_2
*12443 PHY_20
*12444 PHY_200
*12445 PHY_201
*12446 PHY_202
*12447 PHY_203
*12448 PHY_204
*12449 PHY_205
*12450 PHY_206
*12451 PHY_207
*12452 PHY_208
*12453 PHY_209
*12454 PHY_21
*12455 PHY_210
*12456 PHY_211
*12457 PHY_212
*12458 PHY_213
*12459 PHY_214
*12460 PHY_215
*12461 PHY_216
*12462 PHY_217
*12463 PHY_218
*12464 PHY_219
*12465 PHY_22
*12466 PHY_220
*12467 PHY_221
*12468 PHY_222
*12469 PHY_223
*12470 PHY_224
*12471 PHY_225
*12472 PHY_226
*12473 PHY_227
*12474 PHY_228
*12475 PHY_229
*12476 PHY_23
*12477 PHY_230
*12478 PHY_231
*12479 PHY_232
*12480 PHY_233
*12481 PHY_234
*12482 PHY_235
*12483 PHY_236
*12484 PHY_237
*12485 PHY_238
*12486 PHY_239
*12487 PHY_24
*12488 PHY_240
*12489 PHY_241
*12490 PHY_242
*12491 PHY_243
*12492 PHY_244
*12493 PHY_245
*12494 PHY_246
*12495 PHY_247
*12496 PHY_248
*12497 PHY_249
*12498 PHY_25
*12499 PHY_250
*12500 PHY_251
*12501 PHY_252
*12502 PHY_253
*12503 PHY_254
*12504 PHY_255
*12505 PHY_256
*12506 PHY_257
*12507 PHY_258
*12508 PHY_259
*12509 PHY_26
*12510 PHY_260
*12511 PHY_261
*12512 PHY_262
*12513 PHY_263
*12514 PHY_264
*12515 PHY_265
*12516 PHY_266
*12517 PHY_267
*12518 PHY_268
*12519 PHY_269
*12520 PHY_27
*12521 PHY_270
*12522 PHY_271
*12523 PHY_272
*12524 PHY_273
*12525 PHY_274
*12526 PHY_275
*12527 PHY_276
*12528 PHY_277
*12529 PHY_28
*12530 PHY_29
*12531 PHY_3
*12532 PHY_30
*12533 PHY_31
*12534 PHY_32
*12535 PHY_33
*12536 PHY_34
*12537 PHY_35
*12538 PHY_36
*12539 PHY_37
*12540 PHY_38
*12541 PHY_39
*12542 PHY_4
*12543 PHY_40
*12544 PHY_41
*12545 PHY_42
*12546 PHY_43
*12547 PHY_44
*12548 PHY_45
*12549 PHY_46
*12550 PHY_47
*12551 PHY_48
*12552 PHY_49
*12553 PHY_5
*12554 PHY_50
*12555 PHY_51
*12556 PHY_52
*12557 PHY_53
*12558 PHY_54
*12559 PHY_55
*12560 PHY_56
*12561 PHY_57
*12562 PHY_58
*12563 PHY_59
*12564 PHY_6
*12565 PHY_60
*12566 PHY_61
*12567 PHY_62
*12568 PHY_63
*12569 PHY_64
*12570 PHY_65
*12571 PHY_66
*12572 PHY_67
*12573 PHY_68
*12574 PHY_69
*12575 PHY_7
*12576 PHY_70
*12577 PHY_71
*12578 PHY_72
*12579 PHY_73
*12580 PHY_74
*12581 PHY_75
*12582 PHY_76
*12583 PHY_77
*12584 PHY_78
*12585 PHY_79
*12586 PHY_8
*12587 PHY_80
*12588 PHY_81
*12589 PHY_82
*12590 PHY_83
*12591 PHY_84
*12592 PHY_85
*12593 PHY_86
*12594 PHY_87
*12595 PHY_88
*12596 PHY_89
*12597 PHY_9
*12598 PHY_90
*12599 PHY_91
*12600 PHY_92
*12601 PHY_93
*12602 PHY_94
*12603 PHY_95
*12604 PHY_96
*12605 PHY_97
*12606 PHY_98
*12607 PHY_99
*12608 TAP_1000
*12609 TAP_1001
*12610 TAP_1002
*12611 TAP_1003
*12612 TAP_1004
*12613 TAP_1005
*12614 TAP_1006
*12615 TAP_1007
*12616 TAP_1008
*12617 TAP_1009
*12618 TAP_1010
*12619 TAP_1011
*12620 TAP_1012
*12621 TAP_1013
*12622 TAP_1014
*12623 TAP_1015
*12624 TAP_1016
*12625 TAP_1017
*12626 TAP_1018
*12627 TAP_1019
*12628 TAP_1020
*12629 TAP_1021
*12630 TAP_1022
*12631 TAP_1023
*12632 TAP_1024
*12633 TAP_1025
*12634 TAP_1026
*12635 TAP_1027
*12636 TAP_1028
*12637 TAP_1029
*12638 TAP_1030
*12639 TAP_1031
*12640 TAP_1032
*12641 TAP_1033
*12642 TAP_1034
*12643 TAP_1035
*12644 TAP_1036
*12645 TAP_1037
*12646 TAP_1038
*12647 TAP_1039
*12648 TAP_1040
*12649 TAP_1041
*12650 TAP_1042
*12651 TAP_1043
*12652 TAP_1044
*12653 TAP_1045
*12654 TAP_1046
*12655 TAP_1047
*12656 TAP_1048
*12657 TAP_1049
*12658 TAP_1050
*12659 TAP_1051
*12660 TAP_1052
*12661 TAP_1053
*12662 TAP_1054
*12663 TAP_1055
*12664 TAP_1056
*12665 TAP_1057
*12666 TAP_1058
*12667 TAP_1059
*12668 TAP_1060
*12669 TAP_1061
*12670 TAP_1062
*12671 TAP_1063
*12672 TAP_1064
*12673 TAP_1065
*12674 TAP_1066
*12675 TAP_1067
*12676 TAP_1068
*12677 TAP_1069
*12678 TAP_1070
*12679 TAP_1071
*12680 TAP_1072
*12681 TAP_1073
*12682 TAP_1074
*12683 TAP_1075
*12684 TAP_1076
*12685 TAP_1077
*12686 TAP_1078
*12687 TAP_1079
*12688 TAP_1080
*12689 TAP_1081
*12690 TAP_1082
*12691 TAP_1083
*12692 TAP_1084
*12693 TAP_1085
*12694 TAP_1086
*12695 TAP_1087
*12696 TAP_1088
*12697 TAP_1089
*12698 TAP_1090
*12699 TAP_1091
*12700 TAP_1092
*12701 TAP_1093
*12702 TAP_1094
*12703 TAP_1095
*12704 TAP_1096
*12705 TAP_1097
*12706 TAP_1098
*12707 TAP_1099
*12708 TAP_1100
*12709 TAP_1101
*12710 TAP_1102
*12711 TAP_1103
*12712 TAP_1104
*12713 TAP_1105
*12714 TAP_1106
*12715 TAP_1107
*12716 TAP_1108
*12717 TAP_1109
*12718 TAP_1110
*12719 TAP_1111
*12720 TAP_1112
*12721 TAP_1113
*12722 TAP_1114
*12723 TAP_1115
*12724 TAP_1116
*12725 TAP_1117
*12726 TAP_1118
*12727 TAP_1119
*12728 TAP_1120
*12729 TAP_1121
*12730 TAP_1122
*12731 TAP_1123
*12732 TAP_1124
*12733 TAP_1125
*12734 TAP_1126
*12735 TAP_1127
*12736 TAP_1128
*12737 TAP_1129
*12738 TAP_1130
*12739 TAP_1131
*12740 TAP_1132
*12741 TAP_1133
*12742 TAP_1134
*12743 TAP_1135
*12744 TAP_1136
*12745 TAP_1137
*12746 TAP_1138
*12747 TAP_1139
*12748 TAP_1140
*12749 TAP_1141
*12750 TAP_1142
*12751 TAP_1143
*12752 TAP_1144
*12753 TAP_1145
*12754 TAP_1146
*12755 TAP_1147
*12756 TAP_1148
*12757 TAP_1149
*12758 TAP_1150
*12759 TAP_1151
*12760 TAP_1152
*12761 TAP_1153
*12762 TAP_1154
*12763 TAP_1155
*12764 TAP_1156
*12765 TAP_1157
*12766 TAP_1158
*12767 TAP_1159
*12768 TAP_1160
*12769 TAP_1161
*12770 TAP_1162
*12771 TAP_1163
*12772 TAP_1164
*12773 TAP_1165
*12774 TAP_1166
*12775 TAP_1167
*12776 TAP_1168
*12777 TAP_1169
*12778 TAP_1170
*12779 TAP_1171
*12780 TAP_1172
*12781 TAP_1173
*12782 TAP_1174
*12783 TAP_1175
*12784 TAP_1176
*12785 TAP_1177
*12786 TAP_1178
*12787 TAP_1179
*12788 TAP_1180
*12789 TAP_1181
*12790 TAP_1182
*12791 TAP_1183
*12792 TAP_1184
*12793 TAP_1185
*12794 TAP_1186
*12795 TAP_1187
*12796 TAP_1188
*12797 TAP_1189
*12798 TAP_1190
*12799 TAP_1191
*12800 TAP_1192
*12801 TAP_1193
*12802 TAP_1194
*12803 TAP_1195
*12804 TAP_1196
*12805 TAP_1197
*12806 TAP_1198
*12807 TAP_1199
*12808 TAP_1200
*12809 TAP_1201
*12810 TAP_1202
*12811 TAP_1203
*12812 TAP_1204
*12813 TAP_1205
*12814 TAP_1206
*12815 TAP_1207
*12816 TAP_1208
*12817 TAP_1209
*12818 TAP_1210
*12819 TAP_1211
*12820 TAP_1212
*12821 TAP_1213
*12822 TAP_1214
*12823 TAP_1215
*12824 TAP_1216
*12825 TAP_1217
*12826 TAP_1218
*12827 TAP_1219
*12828 TAP_1220
*12829 TAP_1221
*12830 TAP_1222
*12831 TAP_1223
*12832 TAP_1224
*12833 TAP_1225
*12834 TAP_1226
*12835 TAP_1227
*12836 TAP_1228
*12837 TAP_1229
*12838 TAP_1230
*12839 TAP_1231
*12840 TAP_1232
*12841 TAP_1233
*12842 TAP_1234
*12843 TAP_1235
*12844 TAP_1236
*12845 TAP_1237
*12846 TAP_1238
*12847 TAP_1239
*12848 TAP_1240
*12849 TAP_1241
*12850 TAP_1242
*12851 TAP_1243
*12852 TAP_1244
*12853 TAP_1245
*12854 TAP_1246
*12855 TAP_1247
*12856 TAP_1248
*12857 TAP_1249
*12858 TAP_1250
*12859 TAP_1251
*12860 TAP_1252
*12861 TAP_1253
*12862 TAP_1254
*12863 TAP_1255
*12864 TAP_1256
*12865 TAP_1257
*12866 TAP_1258
*12867 TAP_1259
*12868 TAP_1260
*12869 TAP_1261
*12870 TAP_1262
*12871 TAP_1263
*12872 TAP_1264
*12873 TAP_1265
*12874 TAP_1266
*12875 TAP_1267
*12876 TAP_1268
*12877 TAP_1269
*12878 TAP_1270
*12879 TAP_1271
*12880 TAP_1272
*12881 TAP_1273
*12882 TAP_1274
*12883 TAP_1275
*12884 TAP_1276
*12885 TAP_1277
*12886 TAP_1278
*12887 TAP_1279
*12888 TAP_1280
*12889 TAP_1281
*12890 TAP_1282
*12891 TAP_1283
*12892 TAP_1284
*12893 TAP_1285
*12894 TAP_1286
*12895 TAP_1287
*12896 TAP_1288
*12897 TAP_1289
*12898 TAP_1290
*12899 TAP_1291
*12900 TAP_1292
*12901 TAP_1293
*12902 TAP_1294
*12903 TAP_1295
*12904 TAP_1296
*12905 TAP_1297
*12906 TAP_1298
*12907 TAP_1299
*12908 TAP_1300
*12909 TAP_1301
*12910 TAP_1302
*12911 TAP_1303
*12912 TAP_1304
*12913 TAP_1305
*12914 TAP_1306
*12915 TAP_1307
*12916 TAP_1308
*12917 TAP_1309
*12918 TAP_1310
*12919 TAP_1311
*12920 TAP_1312
*12921 TAP_1313
*12922 TAP_1314
*12923 TAP_1315
*12924 TAP_1316
*12925 TAP_1317
*12926 TAP_1318
*12927 TAP_1319
*12928 TAP_1320
*12929 TAP_1321
*12930 TAP_1322
*12931 TAP_1323
*12932 TAP_1324
*12933 TAP_1325
*12934 TAP_1326
*12935 TAP_1327
*12936 TAP_1328
*12937 TAP_1329
*12938 TAP_1330
*12939 TAP_1331
*12940 TAP_1332
*12941 TAP_1333
*12942 TAP_1334
*12943 TAP_1335
*12944 TAP_1336
*12945 TAP_1337
*12946 TAP_1338
*12947 TAP_1339
*12948 TAP_1340
*12949 TAP_1341
*12950 TAP_1342
*12951 TAP_1343
*12952 TAP_1344
*12953 TAP_1345
*12954 TAP_1346
*12955 TAP_1347
*12956 TAP_1348
*12957 TAP_1349
*12958 TAP_1350
*12959 TAP_1351
*12960 TAP_1352
*12961 TAP_1353
*12962 TAP_1354
*12963 TAP_1355
*12964 TAP_1356
*12965 TAP_1357
*12966 TAP_1358
*12967 TAP_1359
*12968 TAP_1360
*12969 TAP_1361
*12970 TAP_1362
*12971 TAP_1363
*12972 TAP_1364
*12973 TAP_1365
*12974 TAP_1366
*12975 TAP_1367
*12976 TAP_1368
*12977 TAP_1369
*12978 TAP_1370
*12979 TAP_1371
*12980 TAP_1372
*12981 TAP_1373
*12982 TAP_1374
*12983 TAP_1375
*12984 TAP_1376
*12985 TAP_1377
*12986 TAP_1378
*12987 TAP_1379
*12988 TAP_1380
*12989 TAP_1381
*12990 TAP_1382
*12991 TAP_1383
*12992 TAP_1384
*12993 TAP_1385
*12994 TAP_1386
*12995 TAP_1387
*12996 TAP_1388
*12997 TAP_1389
*12998 TAP_1390
*12999 TAP_1391
*13000 TAP_1392
*13001 TAP_1393
*13002 TAP_1394
*13003 TAP_1395
*13004 TAP_1396
*13005 TAP_1397
*13006 TAP_1398
*13007 TAP_1399
*13008 TAP_1400
*13009 TAP_1401
*13010 TAP_1402
*13011 TAP_1403
*13012 TAP_1404
*13013 TAP_1405
*13014 TAP_1406
*13015 TAP_1407
*13016 TAP_1408
*13017 TAP_1409
*13018 TAP_1410
*13019 TAP_1411
*13020 TAP_1412
*13021 TAP_1413
*13022 TAP_1414
*13023 TAP_1415
*13024 TAP_1416
*13025 TAP_1417
*13026 TAP_1418
*13027 TAP_1419
*13028 TAP_1420
*13029 TAP_1421
*13030 TAP_1422
*13031 TAP_1423
*13032 TAP_1424
*13033 TAP_1425
*13034 TAP_1426
*13035 TAP_1427
*13036 TAP_1428
*13037 TAP_1429
*13038 TAP_1430
*13039 TAP_1431
*13040 TAP_1432
*13041 TAP_1433
*13042 TAP_1434
*13043 TAP_1435
*13044 TAP_1436
*13045 TAP_1437
*13046 TAP_1438
*13047 TAP_1439
*13048 TAP_1440
*13049 TAP_1441
*13050 TAP_1442
*13051 TAP_1443
*13052 TAP_1444
*13053 TAP_1445
*13054 TAP_1446
*13055 TAP_1447
*13056 TAP_1448
*13057 TAP_1449
*13058 TAP_1450
*13059 TAP_1451
*13060 TAP_1452
*13061 TAP_1453
*13062 TAP_1454
*13063 TAP_1455
*13064 TAP_1456
*13065 TAP_1457
*13066 TAP_1458
*13067 TAP_1459
*13068 TAP_1460
*13069 TAP_1461
*13070 TAP_1462
*13071 TAP_1463
*13072 TAP_1464
*13073 TAP_1465
*13074 TAP_1466
*13075 TAP_1467
*13076 TAP_1468
*13077 TAP_1469
*13078 TAP_1470
*13079 TAP_1471
*13080 TAP_1472
*13081 TAP_1473
*13082 TAP_1474
*13083 TAP_1475
*13084 TAP_1476
*13085 TAP_1477
*13086 TAP_1478
*13087 TAP_1479
*13088 TAP_1480
*13089 TAP_1481
*13090 TAP_1482
*13091 TAP_1483
*13092 TAP_1484
*13093 TAP_1485
*13094 TAP_1486
*13095 TAP_1487
*13096 TAP_1488
*13097 TAP_1489
*13098 TAP_1490
*13099 TAP_1491
*13100 TAP_1492
*13101 TAP_1493
*13102 TAP_1494
*13103 TAP_1495
*13104 TAP_1496
*13105 TAP_1497
*13106 TAP_1498
*13107 TAP_1499
*13108 TAP_1500
*13109 TAP_1501
*13110 TAP_1502
*13111 TAP_1503
*13112 TAP_1504
*13113 TAP_1505
*13114 TAP_1506
*13115 TAP_1507
*13116 TAP_1508
*13117 TAP_1509
*13118 TAP_1510
*13119 TAP_1511
*13120 TAP_1512
*13121 TAP_1513
*13122 TAP_1514
*13123 TAP_1515
*13124 TAP_1516
*13125 TAP_1517
*13126 TAP_1518
*13127 TAP_1519
*13128 TAP_1520
*13129 TAP_1521
*13130 TAP_1522
*13131 TAP_1523
*13132 TAP_1524
*13133 TAP_1525
*13134 TAP_1526
*13135 TAP_1527
*13136 TAP_1528
*13137 TAP_1529
*13138 TAP_1530
*13139 TAP_1531
*13140 TAP_1532
*13141 TAP_1533
*13142 TAP_1534
*13143 TAP_1535
*13144 TAP_1536
*13145 TAP_1537
*13146 TAP_1538
*13147 TAP_1539
*13148 TAP_1540
*13149 TAP_1541
*13150 TAP_1542
*13151 TAP_1543
*13152 TAP_1544
*13153 TAP_1545
*13154 TAP_1546
*13155 TAP_1547
*13156 TAP_1548
*13157 TAP_1549
*13158 TAP_1550
*13159 TAP_1551
*13160 TAP_1552
*13161 TAP_1553
*13162 TAP_1554
*13163 TAP_1555
*13164 TAP_1556
*13165 TAP_1557
*13166 TAP_1558
*13167 TAP_1559
*13168 TAP_1560
*13169 TAP_1561
*13170 TAP_1562
*13171 TAP_1563
*13172 TAP_1564
*13173 TAP_1565
*13174 TAP_1566
*13175 TAP_1567
*13176 TAP_1568
*13177 TAP_1569
*13178 TAP_1570
*13179 TAP_1571
*13180 TAP_1572
*13181 TAP_1573
*13182 TAP_1574
*13183 TAP_1575
*13184 TAP_1576
*13185 TAP_1577
*13186 TAP_1578
*13187 TAP_1579
*13188 TAP_1580
*13189 TAP_1581
*13190 TAP_1582
*13191 TAP_1583
*13192 TAP_1584
*13193 TAP_1585
*13194 TAP_1586
*13195 TAP_1587
*13196 TAP_1588
*13197 TAP_1589
*13198 TAP_1590
*13199 TAP_1591
*13200 TAP_1592
*13201 TAP_1593
*13202 TAP_1594
*13203 TAP_1595
*13204 TAP_1596
*13205 TAP_1597
*13206 TAP_1598
*13207 TAP_1599
*13208 TAP_1600
*13209 TAP_1601
*13210 TAP_1602
*13211 TAP_1603
*13212 TAP_1604
*13213 TAP_1605
*13214 TAP_1606
*13215 TAP_1607
*13216 TAP_1608
*13217 TAP_1609
*13218 TAP_1610
*13219 TAP_1611
*13220 TAP_1612
*13221 TAP_1613
*13222 TAP_1614
*13223 TAP_1615
*13224 TAP_1616
*13225 TAP_1617
*13226 TAP_1618
*13227 TAP_1619
*13228 TAP_1620
*13229 TAP_1621
*13230 TAP_1622
*13231 TAP_1623
*13232 TAP_1624
*13233 TAP_1625
*13234 TAP_1626
*13235 TAP_1627
*13236 TAP_1628
*13237 TAP_1629
*13238 TAP_1630
*13239 TAP_1631
*13240 TAP_1632
*13241 TAP_1633
*13242 TAP_1634
*13243 TAP_1635
*13244 TAP_1636
*13245 TAP_1637
*13246 TAP_1638
*13247 TAP_1639
*13248 TAP_1640
*13249 TAP_1641
*13250 TAP_1642
*13251 TAP_1643
*13252 TAP_1644
*13253 TAP_1645
*13254 TAP_1646
*13255 TAP_1647
*13256 TAP_1648
*13257 TAP_1649
*13258 TAP_1650
*13259 TAP_1651
*13260 TAP_1652
*13261 TAP_1653
*13262 TAP_1654
*13263 TAP_1655
*13264 TAP_1656
*13265 TAP_1657
*13266 TAP_1658
*13267 TAP_1659
*13268 TAP_1660
*13269 TAP_1661
*13270 TAP_1662
*13271 TAP_1663
*13272 TAP_1664
*13273 TAP_1665
*13274 TAP_1666
*13275 TAP_1667
*13276 TAP_1668
*13277 TAP_1669
*13278 TAP_1670
*13279 TAP_1671
*13280 TAP_1672
*13281 TAP_1673
*13282 TAP_1674
*13283 TAP_1675
*13284 TAP_1676
*13285 TAP_1677
*13286 TAP_1678
*13287 TAP_1679
*13288 TAP_1680
*13289 TAP_1681
*13290 TAP_1682
*13291 TAP_1683
*13292 TAP_1684
*13293 TAP_1685
*13294 TAP_1686
*13295 TAP_1687
*13296 TAP_1688
*13297 TAP_1689
*13298 TAP_1690
*13299 TAP_1691
*13300 TAP_1692
*13301 TAP_1693
*13302 TAP_1694
*13303 TAP_1695
*13304 TAP_1696
*13305 TAP_1697
*13306 TAP_1698
*13307 TAP_1699
*13308 TAP_1700
*13309 TAP_1701
*13310 TAP_1702
*13311 TAP_1703
*13312 TAP_1704
*13313 TAP_1705
*13314 TAP_1706
*13315 TAP_1707
*13316 TAP_1708
*13317 TAP_1709
*13318 TAP_1710
*13319 TAP_1711
*13320 TAP_1712
*13321 TAP_1713
*13322 TAP_1714
*13323 TAP_1715
*13324 TAP_1716
*13325 TAP_1717
*13326 TAP_1718
*13327 TAP_1719
*13328 TAP_1720
*13329 TAP_1721
*13330 TAP_1722
*13331 TAP_1723
*13332 TAP_1724
*13333 TAP_1725
*13334 TAP_1726
*13335 TAP_1727
*13336 TAP_1728
*13337 TAP_1729
*13338 TAP_1730
*13339 TAP_1731
*13340 TAP_1732
*13341 TAP_1733
*13342 TAP_1734
*13343 TAP_1735
*13344 TAP_1736
*13345 TAP_1737
*13346 TAP_1738
*13347 TAP_1739
*13348 TAP_1740
*13349 TAP_1741
*13350 TAP_1742
*13351 TAP_1743
*13352 TAP_1744
*13353 TAP_1745
*13354 TAP_1746
*13355 TAP_1747
*13356 TAP_1748
*13357 TAP_1749
*13358 TAP_1750
*13359 TAP_1751
*13360 TAP_1752
*13361 TAP_1753
*13362 TAP_1754
*13363 TAP_1755
*13364 TAP_1756
*13365 TAP_1757
*13366 TAP_1758
*13367 TAP_1759
*13368 TAP_1760
*13369 TAP_1761
*13370 TAP_1762
*13371 TAP_1763
*13372 TAP_1764
*13373 TAP_1765
*13374 TAP_1766
*13375 TAP_1767
*13376 TAP_1768
*13377 TAP_1769
*13378 TAP_1770
*13379 TAP_1771
*13380 TAP_1772
*13381 TAP_1773
*13382 TAP_1774
*13383 TAP_1775
*13384 TAP_1776
*13385 TAP_1777
*13386 TAP_1778
*13387 TAP_1779
*13388 TAP_1780
*13389 TAP_1781
*13390 TAP_1782
*13391 TAP_1783
*13392 TAP_1784
*13393 TAP_1785
*13394 TAP_1786
*13395 TAP_1787
*13396 TAP_1788
*13397 TAP_1789
*13398 TAP_1790
*13399 TAP_1791
*13400 TAP_1792
*13401 TAP_1793
*13402 TAP_1794
*13403 TAP_1795
*13404 TAP_1796
*13405 TAP_1797
*13406 TAP_1798
*13407 TAP_1799
*13408 TAP_1800
*13409 TAP_1801
*13410 TAP_1802
*13411 TAP_1803
*13412 TAP_1804
*13413 TAP_1805
*13414 TAP_1806
*13415 TAP_1807
*13416 TAP_1808
*13417 TAP_1809
*13418 TAP_1810
*13419 TAP_1811
*13420 TAP_1812
*13421 TAP_1813
*13422 TAP_1814
*13423 TAP_1815
*13424 TAP_1816
*13425 TAP_1817
*13426 TAP_1818
*13427 TAP_1819
*13428 TAP_1820
*13429 TAP_1821
*13430 TAP_1822
*13431 TAP_1823
*13432 TAP_1824
*13433 TAP_1825
*13434 TAP_1826
*13435 TAP_1827
*13436 TAP_1828
*13437 TAP_1829
*13438 TAP_1830
*13439 TAP_1831
*13440 TAP_1832
*13441 TAP_1833
*13442 TAP_1834
*13443 TAP_1835
*13444 TAP_1836
*13445 TAP_1837
*13446 TAP_1838
*13447 TAP_1839
*13448 TAP_1840
*13449 TAP_1841
*13450 TAP_1842
*13451 TAP_1843
*13452 TAP_1844
*13453 TAP_1845
*13454 TAP_1846
*13455 TAP_1847
*13456 TAP_1848
*13457 TAP_1849
*13458 TAP_1850
*13459 TAP_1851
*13460 TAP_1852
*13461 TAP_1853
*13462 TAP_1854
*13463 TAP_1855
*13464 TAP_1856
*13465 TAP_1857
*13466 TAP_1858
*13467 TAP_1859
*13468 TAP_1860
*13469 TAP_1861
*13470 TAP_1862
*13471 TAP_1863
*13472 TAP_1864
*13473 TAP_1865
*13474 TAP_1866
*13475 TAP_1867
*13476 TAP_1868
*13477 TAP_1869
*13478 TAP_1870
*13479 TAP_1871
*13480 TAP_1872
*13481 TAP_1873
*13482 TAP_1874
*13483 TAP_1875
*13484 TAP_1876
*13485 TAP_1877
*13486 TAP_1878
*13487 TAP_1879
*13488 TAP_1880
*13489 TAP_1881
*13490 TAP_1882
*13491 TAP_1883
*13492 TAP_1884
*13493 TAP_1885
*13494 TAP_1886
*13495 TAP_1887
*13496 TAP_1888
*13497 TAP_1889
*13498 TAP_1890
*13499 TAP_1891
*13500 TAP_1892
*13501 TAP_1893
*13502 TAP_1894
*13503 TAP_1895
*13504 TAP_1896
*13505 TAP_1897
*13506 TAP_1898
*13507 TAP_1899
*13508 TAP_1900
*13509 TAP_1901
*13510 TAP_1902
*13511 TAP_1903
*13512 TAP_1904
*13513 TAP_1905
*13514 TAP_1906
*13515 TAP_1907
*13516 TAP_1908
*13517 TAP_1909
*13518 TAP_1910
*13519 TAP_1911
*13520 TAP_1912
*13521 TAP_1913
*13522 TAP_1914
*13523 TAP_1915
*13524 TAP_1916
*13525 TAP_1917
*13526 TAP_1918
*13527 TAP_1919
*13528 TAP_1920
*13529 TAP_1921
*13530 TAP_1922
*13531 TAP_1923
*13532 TAP_1924
*13533 TAP_1925
*13534 TAP_1926
*13535 TAP_1927
*13536 TAP_1928
*13537 TAP_1929
*13538 TAP_1930
*13539 TAP_1931
*13540 TAP_1932
*13541 TAP_1933
*13542 TAP_1934
*13543 TAP_1935
*13544 TAP_1936
*13545 TAP_1937
*13546 TAP_1938
*13547 TAP_1939
*13548 TAP_1940
*13549 TAP_1941
*13550 TAP_1942
*13551 TAP_1943
*13552 TAP_1944
*13553 TAP_1945
*13554 TAP_1946
*13555 TAP_1947
*13556 TAP_1948
*13557 TAP_1949
*13558 TAP_1950
*13559 TAP_1951
*13560 TAP_1952
*13561 TAP_1953
*13562 TAP_1954
*13563 TAP_1955
*13564 TAP_1956
*13565 TAP_1957
*13566 TAP_1958
*13567 TAP_1959
*13568 TAP_1960
*13569 TAP_1961
*13570 TAP_1962
*13571 TAP_1963
*13572 TAP_1964
*13573 TAP_1965
*13574 TAP_1966
*13575 TAP_1967
*13576 TAP_1968
*13577 TAP_1969
*13578 TAP_1970
*13579 TAP_1971
*13580 TAP_1972
*13581 TAP_1973
*13582 TAP_1974
*13583 TAP_1975
*13584 TAP_1976
*13585 TAP_1977
*13586 TAP_1978
*13587 TAP_1979
*13588 TAP_1980
*13589 TAP_1981
*13590 TAP_1982
*13591 TAP_1983
*13592 TAP_1984
*13593 TAP_1985
*13594 TAP_1986
*13595 TAP_1987
*13596 TAP_1988
*13597 TAP_1989
*13598 TAP_1990
*13599 TAP_1991
*13600 TAP_1992
*13601 TAP_1993
*13602 TAP_1994
*13603 TAP_1995
*13604 TAP_1996
*13605 TAP_1997
*13606 TAP_1998
*13607 TAP_1999
*13608 TAP_2000
*13609 TAP_2001
*13610 TAP_2002
*13611 TAP_2003
*13612 TAP_2004
*13613 TAP_2005
*13614 TAP_2006
*13615 TAP_2007
*13616 TAP_2008
*13617 TAP_2009
*13618 TAP_2010
*13619 TAP_2011
*13620 TAP_2012
*13621 TAP_2013
*13622 TAP_2014
*13623 TAP_2015
*13624 TAP_2016
*13625 TAP_2017
*13626 TAP_2018
*13627 TAP_2019
*13628 TAP_2020
*13629 TAP_2021
*13630 TAP_2022
*13631 TAP_2023
*13632 TAP_2024
*13633 TAP_2025
*13634 TAP_2026
*13635 TAP_2027
*13636 TAP_2028
*13637 TAP_2029
*13638 TAP_2030
*13639 TAP_2031
*13640 TAP_2032
*13641 TAP_2033
*13642 TAP_2034
*13643 TAP_2035
*13644 TAP_2036
*13645 TAP_2037
*13646 TAP_2038
*13647 TAP_2039
*13648 TAP_2040
*13649 TAP_2041
*13650 TAP_2042
*13651 TAP_2043
*13652 TAP_2044
*13653 TAP_2045
*13654 TAP_2046
*13655 TAP_2047
*13656 TAP_2048
*13657 TAP_2049
*13658 TAP_2050
*13659 TAP_2051
*13660 TAP_2052
*13661 TAP_2053
*13662 TAP_2054
*13663 TAP_2055
*13664 TAP_2056
*13665 TAP_2057
*13666 TAP_2058
*13667 TAP_2059
*13668 TAP_2060
*13669 TAP_2061
*13670 TAP_2062
*13671 TAP_2063
*13672 TAP_2064
*13673 TAP_2065
*13674 TAP_2066
*13675 TAP_2067
*13676 TAP_2068
*13677 TAP_2069
*13678 TAP_2070
*13679 TAP_2071
*13680 TAP_2072
*13681 TAP_2073
*13682 TAP_2074
*13683 TAP_2075
*13684 TAP_2076
*13685 TAP_2077
*13686 TAP_2078
*13687 TAP_2079
*13688 TAP_2080
*13689 TAP_2081
*13690 TAP_2082
*13691 TAP_2083
*13692 TAP_2084
*13693 TAP_2085
*13694 TAP_2086
*13695 TAP_2087
*13696 TAP_2088
*13697 TAP_2089
*13698 TAP_2090
*13699 TAP_2091
*13700 TAP_2092
*13701 TAP_2093
*13702 TAP_2094
*13703 TAP_2095
*13704 TAP_2096
*13705 TAP_2097
*13706 TAP_2098
*13707 TAP_2099
*13708 TAP_2100
*13709 TAP_2101
*13710 TAP_2102
*13711 TAP_2103
*13712 TAP_2104
*13713 TAP_2105
*13714 TAP_2106
*13715 TAP_2107
*13716 TAP_2108
*13717 TAP_2109
*13718 TAP_2110
*13719 TAP_2111
*13720 TAP_2112
*13721 TAP_2113
*13722 TAP_2114
*13723 TAP_2115
*13724 TAP_2116
*13725 TAP_2117
*13726 TAP_2118
*13727 TAP_2119
*13728 TAP_2120
*13729 TAP_2121
*13730 TAP_2122
*13731 TAP_2123
*13732 TAP_2124
*13733 TAP_2125
*13734 TAP_2126
*13735 TAP_2127
*13736 TAP_2128
*13737 TAP_2129
*13738 TAP_2130
*13739 TAP_2131
*13740 TAP_2132
*13741 TAP_2133
*13742 TAP_2134
*13743 TAP_2135
*13744 TAP_2136
*13745 TAP_2137
*13746 TAP_2138
*13747 TAP_2139
*13748 TAP_2140
*13749 TAP_2141
*13750 TAP_2142
*13751 TAP_2143
*13752 TAP_2144
*13753 TAP_2145
*13754 TAP_2146
*13755 TAP_2147
*13756 TAP_2148
*13757 TAP_2149
*13758 TAP_2150
*13759 TAP_2151
*13760 TAP_2152
*13761 TAP_2153
*13762 TAP_2154
*13763 TAP_2155
*13764 TAP_2156
*13765 TAP_2157
*13766 TAP_2158
*13767 TAP_2159
*13768 TAP_2160
*13769 TAP_2161
*13770 TAP_2162
*13771 TAP_2163
*13772 TAP_2164
*13773 TAP_2165
*13774 TAP_2166
*13775 TAP_2167
*13776 TAP_2168
*13777 TAP_2169
*13778 TAP_2170
*13779 TAP_2171
*13780 TAP_2172
*13781 TAP_2173
*13782 TAP_2174
*13783 TAP_2175
*13784 TAP_2176
*13785 TAP_2177
*13786 TAP_2178
*13787 TAP_2179
*13788 TAP_2180
*13789 TAP_2181
*13790 TAP_2182
*13791 TAP_2183
*13792 TAP_2184
*13793 TAP_2185
*13794 TAP_2186
*13795 TAP_2187
*13796 TAP_2188
*13797 TAP_2189
*13798 TAP_2190
*13799 TAP_2191
*13800 TAP_2192
*13801 TAP_2193
*13802 TAP_2194
*13803 TAP_2195
*13804 TAP_2196
*13805 TAP_2197
*13806 TAP_2198
*13807 TAP_2199
*13808 TAP_2200
*13809 TAP_2201
*13810 TAP_2202
*13811 TAP_2203
*13812 TAP_2204
*13813 TAP_2205
*13814 TAP_2206
*13815 TAP_2207
*13816 TAP_2208
*13817 TAP_2209
*13818 TAP_2210
*13819 TAP_2211
*13820 TAP_2212
*13821 TAP_2213
*13822 TAP_2214
*13823 TAP_2215
*13824 TAP_2216
*13825 TAP_2217
*13826 TAP_2218
*13827 TAP_2219
*13828 TAP_2220
*13829 TAP_2221
*13830 TAP_2222
*13831 TAP_2223
*13832 TAP_2224
*13833 TAP_2225
*13834 TAP_2226
*13835 TAP_2227
*13836 TAP_2228
*13837 TAP_2229
*13838 TAP_2230
*13839 TAP_2231
*13840 TAP_2232
*13841 TAP_2233
*13842 TAP_2234
*13843 TAP_2235
*13844 TAP_2236
*13845 TAP_2237
*13846 TAP_2238
*13847 TAP_2239
*13848 TAP_2240
*13849 TAP_2241
*13850 TAP_2242
*13851 TAP_2243
*13852 TAP_2244
*13853 TAP_2245
*13854 TAP_2246
*13855 TAP_2247
*13856 TAP_2248
*13857 TAP_2249
*13858 TAP_2250
*13859 TAP_2251
*13860 TAP_2252
*13861 TAP_2253
*13862 TAP_2254
*13863 TAP_2255
*13864 TAP_2256
*13865 TAP_2257
*13866 TAP_2258
*13867 TAP_2259
*13868 TAP_2260
*13869 TAP_2261
*13870 TAP_2262
*13871 TAP_2263
*13872 TAP_2264
*13873 TAP_2265
*13874 TAP_2266
*13875 TAP_2267
*13876 TAP_2268
*13877 TAP_2269
*13878 TAP_2270
*13879 TAP_2271
*13880 TAP_2272
*13881 TAP_2273
*13882 TAP_2274
*13883 TAP_2275
*13884 TAP_2276
*13885 TAP_2277
*13886 TAP_2278
*13887 TAP_2279
*13888 TAP_2280
*13889 TAP_2281
*13890 TAP_2282
*13891 TAP_2283
*13892 TAP_2284
*13893 TAP_2285
*13894 TAP_2286
*13895 TAP_2287
*13896 TAP_2288
*13897 TAP_2289
*13898 TAP_2290
*13899 TAP_2291
*13900 TAP_2292
*13901 TAP_2293
*13902 TAP_2294
*13903 TAP_2295
*13904 TAP_2296
*13905 TAP_2297
*13906 TAP_2298
*13907 TAP_2299
*13908 TAP_2300
*13909 TAP_2301
*13910 TAP_2302
*13911 TAP_2303
*13912 TAP_2304
*13913 TAP_2305
*13914 TAP_2306
*13915 TAP_2307
*13916 TAP_2308
*13917 TAP_2309
*13918 TAP_2310
*13919 TAP_2311
*13920 TAP_2312
*13921 TAP_2313
*13922 TAP_2314
*13923 TAP_2315
*13924 TAP_2316
*13925 TAP_2317
*13926 TAP_2318
*13927 TAP_2319
*13928 TAP_2320
*13929 TAP_2321
*13930 TAP_278
*13931 TAP_279
*13932 TAP_280
*13933 TAP_281
*13934 TAP_282
*13935 TAP_283
*13936 TAP_284
*13937 TAP_285
*13938 TAP_286
*13939 TAP_287
*13940 TAP_288
*13941 TAP_289
*13942 TAP_290
*13943 TAP_291
*13944 TAP_292
*13945 TAP_293
*13946 TAP_294
*13947 TAP_295
*13948 TAP_296
*13949 TAP_297
*13950 TAP_298
*13951 TAP_299
*13952 TAP_300
*13953 TAP_301
*13954 TAP_302
*13955 TAP_303
*13956 TAP_304
*13957 TAP_305
*13958 TAP_306
*13959 TAP_307
*13960 TAP_308
*13961 TAP_309
*13962 TAP_310
*13963 TAP_311
*13964 TAP_312
*13965 TAP_313
*13966 TAP_314
*13967 TAP_315
*13968 TAP_316
*13969 TAP_317
*13970 TAP_318
*13971 TAP_319
*13972 TAP_320
*13973 TAP_321
*13974 TAP_322
*13975 TAP_323
*13976 TAP_324
*13977 TAP_325
*13978 TAP_326
*13979 TAP_327
*13980 TAP_328
*13981 TAP_329
*13982 TAP_330
*13983 TAP_331
*13984 TAP_332
*13985 TAP_333
*13986 TAP_334
*13987 TAP_335
*13988 TAP_336
*13989 TAP_337
*13990 TAP_338
*13991 TAP_339
*13992 TAP_340
*13993 TAP_341
*13994 TAP_342
*13995 TAP_343
*13996 TAP_344
*13997 TAP_345
*13998 TAP_346
*13999 TAP_347
*14000 TAP_348
*14001 TAP_349
*14002 TAP_350
*14003 TAP_351
*14004 TAP_352
*14005 TAP_353
*14006 TAP_354
*14007 TAP_355
*14008 TAP_356
*14009 TAP_357
*14010 TAP_358
*14011 TAP_359
*14012 TAP_360
*14013 TAP_361
*14014 TAP_362
*14015 TAP_363
*14016 TAP_364
*14017 TAP_365
*14018 TAP_366
*14019 TAP_367
*14020 TAP_368
*14021 TAP_369
*14022 TAP_370
*14023 TAP_371
*14024 TAP_372
*14025 TAP_373
*14026 TAP_374
*14027 TAP_375
*14028 TAP_376
*14029 TAP_377
*14030 TAP_378
*14031 TAP_379
*14032 TAP_380
*14033 TAP_381
*14034 TAP_382
*14035 TAP_383
*14036 TAP_384
*14037 TAP_385
*14038 TAP_386
*14039 TAP_387
*14040 TAP_388
*14041 TAP_389
*14042 TAP_390
*14043 TAP_391
*14044 TAP_392
*14045 TAP_393
*14046 TAP_394
*14047 TAP_395
*14048 TAP_396
*14049 TAP_397
*14050 TAP_398
*14051 TAP_399
*14052 TAP_400
*14053 TAP_401
*14054 TAP_402
*14055 TAP_403
*14056 TAP_404
*14057 TAP_405
*14058 TAP_406
*14059 TAP_407
*14060 TAP_408
*14061 TAP_409
*14062 TAP_410
*14063 TAP_411
*14064 TAP_412
*14065 TAP_413
*14066 TAP_414
*14067 TAP_415
*14068 TAP_416
*14069 TAP_417
*14070 TAP_418
*14071 TAP_419
*14072 TAP_420
*14073 TAP_421
*14074 TAP_422
*14075 TAP_423
*14076 TAP_424
*14077 TAP_425
*14078 TAP_426
*14079 TAP_427
*14080 TAP_428
*14081 TAP_429
*14082 TAP_430
*14083 TAP_431
*14084 TAP_432
*14085 TAP_433
*14086 TAP_434
*14087 TAP_435
*14088 TAP_436
*14089 TAP_437
*14090 TAP_438
*14091 TAP_439
*14092 TAP_440
*14093 TAP_441
*14094 TAP_442
*14095 TAP_443
*14096 TAP_444
*14097 TAP_445
*14098 TAP_446
*14099 TAP_447
*14100 TAP_448
*14101 TAP_449
*14102 TAP_450
*14103 TAP_451
*14104 TAP_452
*14105 TAP_453
*14106 TAP_454
*14107 TAP_455
*14108 TAP_456
*14109 TAP_457
*14110 TAP_458
*14111 TAP_459
*14112 TAP_460
*14113 TAP_461
*14114 TAP_462
*14115 TAP_463
*14116 TAP_464
*14117 TAP_465
*14118 TAP_466
*14119 TAP_467
*14120 TAP_468
*14121 TAP_469
*14122 TAP_470
*14123 TAP_471
*14124 TAP_472
*14125 TAP_473
*14126 TAP_474
*14127 TAP_475
*14128 TAP_476
*14129 TAP_477
*14130 TAP_478
*14131 TAP_479
*14132 TAP_480
*14133 TAP_481
*14134 TAP_482
*14135 TAP_483
*14136 TAP_484
*14137 TAP_485
*14138 TAP_486
*14139 TAP_487
*14140 TAP_488
*14141 TAP_489
*14142 TAP_490
*14143 TAP_491
*14144 TAP_492
*14145 TAP_493
*14146 TAP_494
*14147 TAP_495
*14148 TAP_496
*14149 TAP_497
*14150 TAP_498
*14151 TAP_499
*14152 TAP_500
*14153 TAP_501
*14154 TAP_502
*14155 TAP_503
*14156 TAP_504
*14157 TAP_505
*14158 TAP_506
*14159 TAP_507
*14160 TAP_508
*14161 TAP_509
*14162 TAP_510
*14163 TAP_511
*14164 TAP_512
*14165 TAP_513
*14166 TAP_514
*14167 TAP_515
*14168 TAP_516
*14169 TAP_517
*14170 TAP_518
*14171 TAP_519
*14172 TAP_520
*14173 TAP_521
*14174 TAP_522
*14175 TAP_523
*14176 TAP_524
*14177 TAP_525
*14178 TAP_526
*14179 TAP_527
*14180 TAP_528
*14181 TAP_529
*14182 TAP_530
*14183 TAP_531
*14184 TAP_532
*14185 TAP_533
*14186 TAP_534
*14187 TAP_535
*14188 TAP_536
*14189 TAP_537
*14190 TAP_538
*14191 TAP_539
*14192 TAP_540
*14193 TAP_541
*14194 TAP_542
*14195 TAP_543
*14196 TAP_544
*14197 TAP_545
*14198 TAP_546
*14199 TAP_547
*14200 TAP_548
*14201 TAP_549
*14202 TAP_550
*14203 TAP_551
*14204 TAP_552
*14205 TAP_553
*14206 TAP_554
*14207 TAP_555
*14208 TAP_556
*14209 TAP_557
*14210 TAP_558
*14211 TAP_559
*14212 TAP_560
*14213 TAP_561
*14214 TAP_562
*14215 TAP_563
*14216 TAP_564
*14217 TAP_565
*14218 TAP_566
*14219 TAP_567
*14220 TAP_568
*14221 TAP_569
*14222 TAP_570
*14223 TAP_571
*14224 TAP_572
*14225 TAP_573
*14226 TAP_574
*14227 TAP_575
*14228 TAP_576
*14229 TAP_577
*14230 TAP_578
*14231 TAP_579
*14232 TAP_580
*14233 TAP_581
*14234 TAP_582
*14235 TAP_583
*14236 TAP_584
*14237 TAP_585
*14238 TAP_586
*14239 TAP_587
*14240 TAP_588
*14241 TAP_589
*14242 TAP_590
*14243 TAP_591
*14244 TAP_592
*14245 TAP_593
*14246 TAP_594
*14247 TAP_595
*14248 TAP_596
*14249 TAP_597
*14250 TAP_598
*14251 TAP_599
*14252 TAP_600
*14253 TAP_601
*14254 TAP_602
*14255 TAP_603
*14256 TAP_604
*14257 TAP_605
*14258 TAP_606
*14259 TAP_607
*14260 TAP_608
*14261 TAP_609
*14262 TAP_610
*14263 TAP_611
*14264 TAP_612
*14265 TAP_613
*14266 TAP_614
*14267 TAP_615
*14268 TAP_616
*14269 TAP_617
*14270 TAP_618
*14271 TAP_619
*14272 TAP_620
*14273 TAP_621
*14274 TAP_622
*14275 TAP_623
*14276 TAP_624
*14277 TAP_625
*14278 TAP_626
*14279 TAP_627
*14280 TAP_628
*14281 TAP_629
*14282 TAP_630
*14283 TAP_631
*14284 TAP_632
*14285 TAP_633
*14286 TAP_634
*14287 TAP_635
*14288 TAP_636
*14289 TAP_637
*14290 TAP_638
*14291 TAP_639
*14292 TAP_640
*14293 TAP_641
*14294 TAP_642
*14295 TAP_643
*14296 TAP_644
*14297 TAP_645
*14298 TAP_646
*14299 TAP_647
*14300 TAP_648
*14301 TAP_649
*14302 TAP_650
*14303 TAP_651
*14304 TAP_652
*14305 TAP_653
*14306 TAP_654
*14307 TAP_655
*14308 TAP_656
*14309 TAP_657
*14310 TAP_658
*14311 TAP_659
*14312 TAP_660
*14313 TAP_661
*14314 TAP_662
*14315 TAP_663
*14316 TAP_664
*14317 TAP_665
*14318 TAP_666
*14319 TAP_667
*14320 TAP_668
*14321 TAP_669
*14322 TAP_670
*14323 TAP_671
*14324 TAP_672
*14325 TAP_673
*14326 TAP_674
*14327 TAP_675
*14328 TAP_676
*14329 TAP_677
*14330 TAP_678
*14331 TAP_679
*14332 TAP_680
*14333 TAP_681
*14334 TAP_682
*14335 TAP_683
*14336 TAP_684
*14337 TAP_685
*14338 TAP_686
*14339 TAP_687
*14340 TAP_688
*14341 TAP_689
*14342 TAP_690
*14343 TAP_691
*14344 TAP_692
*14345 TAP_693
*14346 TAP_694
*14347 TAP_695
*14348 TAP_696
*14349 TAP_697
*14350 TAP_698
*14351 TAP_699
*14352 TAP_700
*14353 TAP_701
*14354 TAP_702
*14355 TAP_703
*14356 TAP_704
*14357 TAP_705
*14358 TAP_706
*14359 TAP_707
*14360 TAP_708
*14361 TAP_709
*14362 TAP_710
*14363 TAP_711
*14364 TAP_712
*14365 TAP_713
*14366 TAP_714
*14367 TAP_715
*14368 TAP_716
*14369 TAP_717
*14370 TAP_718
*14371 TAP_719
*14372 TAP_720
*14373 TAP_721
*14374 TAP_722
*14375 TAP_723
*14376 TAP_724
*14377 TAP_725
*14378 TAP_726
*14379 TAP_727
*14380 TAP_728
*14381 TAP_729
*14382 TAP_730
*14383 TAP_731
*14384 TAP_732
*14385 TAP_733
*14386 TAP_734
*14387 TAP_735
*14388 TAP_736
*14389 TAP_737
*14390 TAP_738
*14391 TAP_739
*14392 TAP_740
*14393 TAP_741
*14394 TAP_742
*14395 TAP_743
*14396 TAP_744
*14397 TAP_745
*14398 TAP_746
*14399 TAP_747
*14400 TAP_748
*14401 TAP_749
*14402 TAP_750
*14403 TAP_751
*14404 TAP_752
*14405 TAP_753
*14406 TAP_754
*14407 TAP_755
*14408 TAP_756
*14409 TAP_757
*14410 TAP_758
*14411 TAP_759
*14412 TAP_760
*14413 TAP_761
*14414 TAP_762
*14415 TAP_763
*14416 TAP_764
*14417 TAP_765
*14418 TAP_766
*14419 TAP_767
*14420 TAP_768
*14421 TAP_769
*14422 TAP_770
*14423 TAP_771
*14424 TAP_772
*14425 TAP_773
*14426 TAP_774
*14427 TAP_775
*14428 TAP_776
*14429 TAP_777
*14430 TAP_778
*14431 TAP_779
*14432 TAP_780
*14433 TAP_781
*14434 TAP_782
*14435 TAP_783
*14436 TAP_784
*14437 TAP_785
*14438 TAP_786
*14439 TAP_787
*14440 TAP_788
*14441 TAP_789
*14442 TAP_790
*14443 TAP_791
*14444 TAP_792
*14445 TAP_793
*14446 TAP_794
*14447 TAP_795
*14448 TAP_796
*14449 TAP_797
*14450 TAP_798
*14451 TAP_799
*14452 TAP_800
*14453 TAP_801
*14454 TAP_802
*14455 TAP_803
*14456 TAP_804
*14457 TAP_805
*14458 TAP_806
*14459 TAP_807
*14460 TAP_808
*14461 TAP_809
*14462 TAP_810
*14463 TAP_811
*14464 TAP_812
*14465 TAP_813
*14466 TAP_814
*14467 TAP_815
*14468 TAP_816
*14469 TAP_817
*14470 TAP_818
*14471 TAP_819
*14472 TAP_820
*14473 TAP_821
*14474 TAP_822
*14475 TAP_823
*14476 TAP_824
*14477 TAP_825
*14478 TAP_826
*14479 TAP_827
*14480 TAP_828
*14481 TAP_829
*14482 TAP_830
*14483 TAP_831
*14484 TAP_832
*14485 TAP_833
*14486 TAP_834
*14487 TAP_835
*14488 TAP_836
*14489 TAP_837
*14490 TAP_838
*14491 TAP_839
*14492 TAP_840
*14493 TAP_841
*14494 TAP_842
*14495 TAP_843
*14496 TAP_844
*14497 TAP_845
*14498 TAP_846
*14499 TAP_847
*14500 TAP_848
*14501 TAP_849
*14502 TAP_850
*14503 TAP_851
*14504 TAP_852
*14505 TAP_853
*14506 TAP_854
*14507 TAP_855
*14508 TAP_856
*14509 TAP_857
*14510 TAP_858
*14511 TAP_859
*14512 TAP_860
*14513 TAP_861
*14514 TAP_862
*14515 TAP_863
*14516 TAP_864
*14517 TAP_865
*14518 TAP_866
*14519 TAP_867
*14520 TAP_868
*14521 TAP_869
*14522 TAP_870
*14523 TAP_871
*14524 TAP_872
*14525 TAP_873
*14526 TAP_874
*14527 TAP_875
*14528 TAP_876
*14529 TAP_877
*14530 TAP_878
*14531 TAP_879
*14532 TAP_880
*14533 TAP_881
*14534 TAP_882
*14535 TAP_883
*14536 TAP_884
*14537 TAP_885
*14538 TAP_886
*14539 TAP_887
*14540 TAP_888
*14541 TAP_889
*14542 TAP_890
*14543 TAP_891
*14544 TAP_892
*14545 TAP_893
*14546 TAP_894
*14547 TAP_895
*14548 TAP_896
*14549 TAP_897
*14550 TAP_898
*14551 TAP_899
*14552 TAP_900
*14553 TAP_901
*14554 TAP_902
*14555 TAP_903
*14556 TAP_904
*14557 TAP_905
*14558 TAP_906
*14559 TAP_907
*14560 TAP_908
*14561 TAP_909
*14562 TAP_910
*14563 TAP_911
*14564 TAP_912
*14565 TAP_913
*14566 TAP_914
*14567 TAP_915
*14568 TAP_916
*14569 TAP_917
*14570 TAP_918
*14571 TAP_919
*14572 TAP_920
*14573 TAP_921
*14574 TAP_922
*14575 TAP_923
*14576 TAP_924
*14577 TAP_925
*14578 TAP_926
*14579 TAP_927
*14580 TAP_928
*14581 TAP_929
*14582 TAP_930
*14583 TAP_931
*14584 TAP_932
*14585 TAP_933
*14586 TAP_934
*14587 TAP_935
*14588 TAP_936
*14589 TAP_937
*14590 TAP_938
*14591 TAP_939
*14592 TAP_940
*14593 TAP_941
*14594 TAP_942
*14595 TAP_943
*14596 TAP_944
*14597 TAP_945
*14598 TAP_946
*14599 TAP_947
*14600 TAP_948
*14601 TAP_949
*14602 TAP_950
*14603 TAP_951
*14604 TAP_952
*14605 TAP_953
*14606 TAP_954
*14607 TAP_955
*14608 TAP_956
*14609 TAP_957
*14610 TAP_958
*14611 TAP_959
*14612 TAP_960
*14613 TAP_961
*14614 TAP_962
*14615 TAP_963
*14616 TAP_964
*14617 TAP_965
*14618 TAP_966
*14619 TAP_967
*14620 TAP_968
*14621 TAP_969
*14622 TAP_970
*14623 TAP_971
*14624 TAP_972
*14625 TAP_973
*14626 TAP_974
*14627 TAP_975
*14628 TAP_976
*14629 TAP_977
*14630 TAP_978
*14631 TAP_979
*14632 TAP_980
*14633 TAP_981
*14634 TAP_982
*14635 TAP_983
*14636 TAP_984
*14637 TAP_985
*14638 TAP_986
*14639 TAP_987
*14640 TAP_988
*14641 TAP_989
*14642 TAP_990
*14643 TAP_991
*14644 TAP_992
*14645 TAP_993
*14646 TAP_994
*14647 TAP_995
*14648 TAP_996
*14649 TAP_997
*14650 TAP_998
*14651 TAP_999
*14652 _02_
*14653 _03_
*14654 _03__29
*14655 computer_10
*14656 computer_11
*14657 computer_12
*14658 computer_13
*14659 computer_14
*14660 computer_15
*14661 computer_16
*14662 computer_17
*14663 computer_18
*14664 computer_19
*14665 computer_20
*14666 computer_21
*14667 computer_22
*14668 computer_23
*14669 computer_24
*14670 computer_25
*14671 computer_26
*14672 computer_27
*14673 computer_28
*14674 computer_3
*14675 computer_4
*14676 computer_5
*14677 computer_6
*14678 computer_7
*14679 computer_8
*14680 computer_9
*14681 input1
*14682 output2

*PORTS
A_out[0] O
A_out[1] O
A_out[2] O
A_out[3] O
A_out[4] O
A_out[5] O
A_out[6] O
A_out[7] O
B_out[0] O
B_out[1] O
B_out[2] O
B_out[3] O
B_out[4] O
B_out[5] O
B_out[6] O
B_out[7] O
clk I
flags_out[0] O
flags_out[1] O
flags_out[2] O
flags_out[3] O
last_opcode_out[0] O
last_opcode_out[1] O
last_opcode_out[2] O
last_opcode_out[3] O
last_opcode_out[4] O
last_opcode_out[5] O
last_opcode_out[6] O
rst I

*D_NET *1 0.00111539
*CONN
*P A_out[0] O
*I *14666:LO O *D sky130_fd_sc_hd__conb_1
*CAP
1 A_out[0] 0.000557696
2 *14666:LO 0.000557696
*RES
1 *14666:LO A_out[0] 49.432 
*END

*D_NET *2 0.00103134
*CONN
*P A_out[1] O
*I *14667:LO O *D sky130_fd_sc_hd__conb_1
*CAP
1 A_out[1] 0.000152733
2 *14667:LO 0.000362938
3 *2:10 0.000515671
*RES
1 *14667:LO *2:10 44.1832 
2 *2:10 A_out[1] 8.58613 
*END

*D_NET *3 0.000985278
*CONN
*P A_out[2] O
*I *14668:LO O *D sky130_fd_sc_hd__conb_1
*CAP
1 A_out[2] 0.000492639
2 *14668:LO 0.000492639
*RES
1 *14668:LO A_out[2] 48.6419 
*END

*D_NET *4 0.000854483
*CONN
*P A_out[3] O
*I *14669:LO O *D sky130_fd_sc_hd__conb_1
*CAP
1 A_out[3] 0.000427241
2 *14669:LO 0.000427241
*RES
1 *14669:LO A_out[3] 46.6171 
*END

*D_NET *5 0.000900968
*CONN
*P A_out[4] O
*I *14670:LO O *D sky130_fd_sc_hd__conb_1
*CAP
1 A_out[4] 0.000450484
2 *14670:LO 0.000450484
*RES
1 *14670:LO A_out[4] 47.9429 
*END

*D_NET *6 0.000854483
*CONN
*P A_out[5] O
*I *14671:LO O *D sky130_fd_sc_hd__conb_1
*CAP
1 A_out[5] 0.000427241
2 *14671:LO 0.000427241
*RES
1 *14671:LO A_out[5] 46.6171 
*END

*D_NET *7 0.000949575
*CONN
*P A_out[6] O
*I *14672:LO O *D sky130_fd_sc_hd__conb_1
*CAP
1 A_out[6] 0.000474787
2 *14672:LO 0.000474787
*RES
1 *14672:LO A_out[6] 48.0235 
*END

*D_NET *8 0.000854483
*CONN
*P A_out[7] O
*I *14673:LO O *D sky130_fd_sc_hd__conb_1
*CAP
1 A_out[7] 0.000427241
2 *14673:LO 0.000427241
*RES
1 *14673:LO A_out[7] 46.6171 
*END

*D_NET *9 0.000925633
*CONN
*P B_out[0] O
*I *14658:LO O *D sky130_fd_sc_hd__conb_1
*CAP
1 B_out[0] 0.000462816
2 *14658:LO 0.000462816
*RES
1 *14658:LO B_out[0] 47.0936 
*END

*D_NET *10 0.00085858
*CONN
*P B_out[1] O
*I *14659:LO O *D sky130_fd_sc_hd__conb_1
*CAP
1 B_out[1] 0.00042929
2 *14659:LO 0.00042929
*RES
1 *14659:LO B_out[1] 47.4664 
*END

*D_NET *11 0.000925698
*CONN
*P B_out[2] O
*I *14660:LO O *D sky130_fd_sc_hd__conb_1
*CAP
1 B_out[2] 0.000462849
2 *14660:LO 0.000462849
*RES
1 *14660:LO B_out[2] 48.0235 
*END

*D_NET *12 0.000925633
*CONN
*P B_out[3] O
*I *14661:LO O *D sky130_fd_sc_hd__conb_1
*CAP
1 B_out[3] 0.000462816
2 *14661:LO 0.000462816
*RES
1 *14661:LO B_out[3] 47.0936 
*END

*D_NET *13 0.000854483
*CONN
*P B_out[4] O
*I *14662:LO O *D sky130_fd_sc_hd__conb_1
*CAP
1 B_out[4] 0.000427241
2 *14662:LO 0.000427241
*RES
1 *14662:LO B_out[4] 46.6171 
*END

*D_NET *14 0.00115368
*CONN
*P B_out[5] O
*I *14663:LO O *D sky130_fd_sc_hd__conb_1
*CAP
1 B_out[5] 0.000152733
2 *14663:LO 0.000424109
3 *14:10 0.000576841
*RES
1 *14663:LO *14:10 45.5918 
2 *14:10 B_out[5] 8.58613 
*END

*D_NET *15 0.000983345
*CONN
*P B_out[6] O
*I *14664:LO O *D sky130_fd_sc_hd__conb_1
*CAP
1 B_out[6] 0.000491672
2 *14664:LO 0.000491672
*RES
1 *14664:LO B_out[6] 48.0235 
*END

*D_NET *16 0.00085858
*CONN
*P B_out[7] O
*I *14665:LO O *D sky130_fd_sc_hd__conb_1
*CAP
1 B_out[7] 0.00042929
2 *14665:LO 0.00042929
*RES
1 *14665:LO B_out[7] 47.4664 
*END

*D_NET *19 0.0179122
*CONN
*P clk I
*I *14653:CLK I *D sky130_fd_sc_hd__dfrtp_1
*CAP
1 clk 0.000511632
2 *14653:CLK 0
3 *19:9 0.00844447
4 *19:7 0.0089561
*RES
1 clk *19:7 26.5171 
2 *19:7 *19:9 157.366 
3 *19:9 *14653:CLK 23 
*END

*D_NET *20 0.00085858
*CONN
*P flags_out[0] O
*I *14655:LO O *D sky130_fd_sc_hd__conb_1
*CAP
1 flags_out[0] 0.00042929
2 *14655:LO 0.00042929
*RES
1 *14655:LO flags_out[0] 47.4664 
*END

*D_NET *21 0.00085858
*CONN
*P flags_out[1] O
*I *14656:LO O *D sky130_fd_sc_hd__conb_1
*CAP
1 flags_out[1] 0.00042929
2 *14656:LO 0.00042929
*RES
1 *14656:LO flags_out[1] 47.4664 
*END

*D_NET *22 0.000946405
*CONN
*P flags_out[2] O
*I *14657:LO O *D sky130_fd_sc_hd__conb_1
*CAP
1 flags_out[2] 0.000473203
2 *14657:LO 0.000473203
*RES
1 *14657:LO flags_out[2] 48.0235 
*END

*D_NET *23 0.00102786
*CONN
*P flags_out[3] O
*I *14682:X O *D sky130_fd_sc_hd__clkbuf_4
*CAP
1 flags_out[3] 0.000486859
2 *14682:X 0.000486859
3 flags_out[3] *14682:A 5.41385e-05
*RES
1 *14682:X flags_out[3] 47.57 
*END

*D_NET *24 0.000992354
*CONN
*P last_opcode_out[0] O
*I *14674:LO O *D sky130_fd_sc_hd__conb_1
*CAP
1 last_opcode_out[0] 0.000164703
2 *14674:LO 0.000331474
3 *24:10 0.000496177
*RES
1 *14674:LO *24:10 44.1832 
2 *24:10 last_opcode_out[0] 8.58613 
*END

*D_NET *25 0.000966976
*CONN
*P last_opcode_out[1] O
*I *14675:LO O *D sky130_fd_sc_hd__conb_1
*CAP
1 last_opcode_out[1] 0.000483488
2 *14675:LO 0.000483488
*RES
1 *14675:LO last_opcode_out[1] 48.0235 
*END

*D_NET *26 0.00107071
*CONN
*P last_opcode_out[2] O
*I *14676:LO O *D sky130_fd_sc_hd__conb_1
*CAP
1 last_opcode_out[2] 0.000535353
2 *14676:LO 0.000535353
*RES
1 *14676:LO last_opcode_out[2] 49.3462 
*END

*D_NET *27 0.000854483
*CONN
*P last_opcode_out[3] O
*I *14677:LO O *D sky130_fd_sc_hd__conb_1
*CAP
1 last_opcode_out[3] 0.000427241
2 *14677:LO 0.000427241
*RES
1 *14677:LO last_opcode_out[3] 46.6171 
*END

*D_NET *28 0.000900968
*CONN
*P last_opcode_out[4] O
*I *14678:LO O *D sky130_fd_sc_hd__conb_1
*CAP
1 last_opcode_out[4] 0.000450484
2 *14678:LO 0.000450484
*RES
1 *14678:LO last_opcode_out[4] 47.9429 
*END

*D_NET *29 0.00108116
*CONN
*P last_opcode_out[5] O
*I *14679:LO O *D sky130_fd_sc_hd__conb_1
*CAP
1 last_opcode_out[5] 0.000152733
2 *14679:LO 0.000387849
3 *29:10 0.000540582
*RES
1 *14679:LO *29:10 45.5918 
2 *29:10 last_opcode_out[5] 8.58613 
*END

*D_NET *30 0.00191801
*CONN
*P last_opcode_out[6] O
*I *14680:LO O *D sky130_fd_sc_hd__conb_1
*CAP
1 last_opcode_out[6] 0.000624629
2 *14680:LO 0.000334375
3 *30:8 0.000959004
*RES
1 *14680:LO *30:8 43.8621 
2 *30:8 last_opcode_out[6] 18.7672 
*END

*D_NET *31 0.0017072
*CONN
*P rst I
*I *14681:A I *D sky130_fd_sc_hd__buf_2
*CAP
1 rst 0.000826531
2 *14681:A 0
3 *31:13 0.000826531
4 *31:13 *33:6 5.41385e-05
*RES
1 rst *31:13 29.8827 
2 *31:13 *14681:A 23 
*END

*D_NET *32 0.000330752
*CONN
*I *14653:RESET_B I *D sky130_fd_sc_hd__dfrtp_1
*I *14652:Y O *D sky130_fd_sc_hd__inv_2
*CAP
1 *14653:RESET_B 0
2 *14652:Y 0.000165376
3 *32:10 0.000165376
*RES
1 *14652:Y *32:10 40.5271 
2 *32:10 *14653:RESET_B 15 
*END

*D_NET *33 0.0410064
*CONN
*I *14652:A I *D sky130_fd_sc_hd__inv_2
*I *14681:X O *D sky130_fd_sc_hd__buf_2
*CAP
1 *14652:A 0
2 *14681:X 0
3 *33:10 0.00672372
4 *33:8 0.00672372
5 *33:6 0.0137524
6 *33:4 0.0137524
7 *31:13 *33:6 5.41385e-05
*RES
1 *14681:X *33:4 23 
2 *33:4 *33:6 235.501 
3 *33:6 *33:8 15 
4 *33:8 *33:10 132.199 
5 *33:10 *14652:A 38 
*END

*D_NET *34 0.000456218
*CONN
*I *14682:A I *D sky130_fd_sc_hd__clkbuf_4
*I *14653:Q O *D sky130_fd_sc_hd__dfrtp_1
*CAP
1 *14682:A 7.48407e-05
2 *14653:Q 0.000126199
3 *34:8 0.00020104
4 flags_out[3] *14682:A 5.41385e-05
*RES
1 *14653:Q *34:8 40.2579 
2 *34:8 *14682:A 39.5743 
*END

*D_NET *35 0.000282775
*CONN
*I *14653:D I *D sky130_fd_sc_hd__dfrtp_1
*I *14654:HI O *D sky130_fd_sc_hd__conb_1
*CAP
1 *14653:D 5.9597e-05
2 *14654:HI 8.17907e-05
3 *35:8 0.000141388
*RES
1 *14654:HI *35:8 39.2014 
2 *35:8 *14653:D 39.1186 
*END
